In1 P1
1.0
  -2.9519761589321618    0.0000000000000000    2.9519761589321618
   0.0000000000000000    2.9519761589321618    2.9519761589321618
  -2.9519761589321618    2.9519761589321618    0.0000000000000000
In P
1 1
direct
   0.0000000000000000    0.0000000000000000    0.0000000000000000 In
   0.2500000192026688    0.2500000960133439    0.2499999423919936 P
