Ga2 N2
1.0
   3.1889301585807672    0.0000000000000000    0.0000000000000000
  -1.5944650792903836    2.7616945282252829    0.0000000000000000
   0.0000000000000000    0.0000000000000000    5.1923568511715645
Ga N
2 2
direct
   0.3333333589368918    0.6666666410631084    0.4990837483349567 Ga
   0.6666667178737834    0.3333333589368917    0.9990837867402944 Ga
   0.3333333589368918    0.6666666410631084    0.8759163572797216 N
   0.6666667178737834    0.3333333589368917    0.3759163188743842 N
