Ba1 S1
1.0
  -3.2256753702394318    0.0000000000000000    3.2256753702394318
   0.0000000000000000    3.2256753702394318    3.2256753702394318
  -3.2256753702394318    3.2256753702394318    0.0000000000000000
Ba S
1 1
direct
   0.0000000000000000    0.0000000000000000    0.0000000000000000 Ba
   0.4999999615946625    0.5000000384053375    0.4999999615946625 S
