num_wann = 3
exclude_bands = 1-1 5-8
num_iter = 500

auto_projections =.true.

begin atoms_frac
Ne 0.0 0.0 0.0
end atoms_frac

geninterp = true
geninterp_alsofirstder = true

begin unit_cell_cart
-2.097510 0.000000 2.097510
0.000000 2.097510 2.097510
-2.097510 2.097510 0.000000
end unit_cell_cart

mp_grid : 14 14 14

begin kpoints
  0.00000000  0.00000000  0.00000000
  0.00000000  0.00000000  0.07142857
  0.00000000  0.00000000  0.14285714
  0.00000000  0.00000000  0.21428571
  0.00000000  0.00000000  0.28571429
  0.00000000  0.00000000  0.35714286
  0.00000000  0.00000000  0.42857143
  0.00000000  0.00000000  0.50000000
  0.00000000  0.00000000  0.57142857
  0.00000000  0.00000000  0.64285714
  0.00000000  0.00000000  0.71428571
  0.00000000  0.00000000  0.78571429
  0.00000000  0.00000000  0.85714286
  0.00000000  0.00000000  0.92857143
  0.00000000  0.07142857  0.00000000
  0.00000000  0.07142857  0.07142857
  0.00000000  0.07142857  0.14285714
  0.00000000  0.07142857  0.21428571
  0.00000000  0.07142857  0.28571429
  0.00000000  0.07142857  0.35714286
  0.00000000  0.07142857  0.42857143
  0.00000000  0.07142857  0.50000000
  0.00000000  0.07142857  0.57142857
  0.00000000  0.07142857  0.64285714
  0.00000000  0.07142857  0.71428571
  0.00000000  0.07142857  0.78571429
  0.00000000  0.07142857  0.85714286
  0.00000000  0.07142857  0.92857143
  0.00000000  0.14285714  0.00000000
  0.00000000  0.14285714  0.07142857
  0.00000000  0.14285714  0.14285714
  0.00000000  0.14285714  0.21428571
  0.00000000  0.14285714  0.28571429
  0.00000000  0.14285714  0.35714286
  0.00000000  0.14285714  0.42857143
  0.00000000  0.14285714  0.50000000
  0.00000000  0.14285714  0.57142857
  0.00000000  0.14285714  0.64285714
  0.00000000  0.14285714  0.71428571
  0.00000000  0.14285714  0.78571429
  0.00000000  0.14285714  0.85714286
  0.00000000  0.14285714  0.92857143
  0.00000000  0.21428571  0.00000000
  0.00000000  0.21428571  0.07142857
  0.00000000  0.21428571  0.14285714
  0.00000000  0.21428571  0.21428571
  0.00000000  0.21428571  0.28571429
  0.00000000  0.21428571  0.35714286
  0.00000000  0.21428571  0.42857143
  0.00000000  0.21428571  0.50000000
  0.00000000  0.21428571  0.57142857
  0.00000000  0.21428571  0.64285714
  0.00000000  0.21428571  0.71428571
  0.00000000  0.21428571  0.78571429
  0.00000000  0.21428571  0.85714286
  0.00000000  0.21428571  0.92857143
  0.00000000  0.28571429  0.00000000
  0.00000000  0.28571429  0.07142857
  0.00000000  0.28571429  0.14285714
  0.00000000  0.28571429  0.21428571
  0.00000000  0.28571429  0.28571429
  0.00000000  0.28571429  0.35714286
  0.00000000  0.28571429  0.42857143
  0.00000000  0.28571429  0.50000000
  0.00000000  0.28571429  0.57142857
  0.00000000  0.28571429  0.64285714
  0.00000000  0.28571429  0.71428571
  0.00000000  0.28571429  0.78571429
  0.00000000  0.28571429  0.85714286
  0.00000000  0.28571429  0.92857143
  0.00000000  0.35714286  0.00000000
  0.00000000  0.35714286  0.07142857
  0.00000000  0.35714286  0.14285714
  0.00000000  0.35714286  0.21428571
  0.00000000  0.35714286  0.28571429
  0.00000000  0.35714286  0.35714286
  0.00000000  0.35714286  0.42857143
  0.00000000  0.35714286  0.50000000
  0.00000000  0.35714286  0.57142857
  0.00000000  0.35714286  0.64285714
  0.00000000  0.35714286  0.71428571
  0.00000000  0.35714286  0.78571429
  0.00000000  0.35714286  0.85714286
  0.00000000  0.35714286  0.92857143
  0.00000000  0.42857143  0.00000000
  0.00000000  0.42857143  0.07142857
  0.00000000  0.42857143  0.14285714
  0.00000000  0.42857143  0.21428571
  0.00000000  0.42857143  0.28571429
  0.00000000  0.42857143  0.35714286
  0.00000000  0.42857143  0.42857143
  0.00000000  0.42857143  0.50000000
  0.00000000  0.42857143  0.57142857
  0.00000000  0.42857143  0.64285714
  0.00000000  0.42857143  0.71428571
  0.00000000  0.42857143  0.78571429
  0.00000000  0.42857143  0.85714286
  0.00000000  0.42857143  0.92857143
  0.00000000  0.50000000  0.00000000
  0.00000000  0.50000000  0.07142857
  0.00000000  0.50000000  0.14285714
  0.00000000  0.50000000  0.21428571
  0.00000000  0.50000000  0.28571429
  0.00000000  0.50000000  0.35714286
  0.00000000  0.50000000  0.42857143
  0.00000000  0.50000000  0.50000000
  0.00000000  0.50000000  0.57142857
  0.00000000  0.50000000  0.64285714
  0.00000000  0.50000000  0.71428571
  0.00000000  0.50000000  0.78571429
  0.00000000  0.50000000  0.85714286
  0.00000000  0.50000000  0.92857143
  0.00000000  0.57142857  0.00000000
  0.00000000  0.57142857  0.07142857
  0.00000000  0.57142857  0.14285714
  0.00000000  0.57142857  0.21428571
  0.00000000  0.57142857  0.28571429
  0.00000000  0.57142857  0.35714286
  0.00000000  0.57142857  0.42857143
  0.00000000  0.57142857  0.50000000
  0.00000000  0.57142857  0.57142857
  0.00000000  0.57142857  0.64285714
  0.00000000  0.57142857  0.71428571
  0.00000000  0.57142857  0.78571429
  0.00000000  0.57142857  0.85714286
  0.00000000  0.57142857  0.92857143
  0.00000000  0.64285714  0.00000000
  0.00000000  0.64285714  0.07142857
  0.00000000  0.64285714  0.14285714
  0.00000000  0.64285714  0.21428571
  0.00000000  0.64285714  0.28571429
  0.00000000  0.64285714  0.35714286
  0.00000000  0.64285714  0.42857143
  0.00000000  0.64285714  0.50000000
  0.00000000  0.64285714  0.57142857
  0.00000000  0.64285714  0.64285714
  0.00000000  0.64285714  0.71428571
  0.00000000  0.64285714  0.78571429
  0.00000000  0.64285714  0.85714286
  0.00000000  0.64285714  0.92857143
  0.00000000  0.71428571  0.00000000
  0.00000000  0.71428571  0.07142857
  0.00000000  0.71428571  0.14285714
  0.00000000  0.71428571  0.21428571
  0.00000000  0.71428571  0.28571429
  0.00000000  0.71428571  0.35714286
  0.00000000  0.71428571  0.42857143
  0.00000000  0.71428571  0.50000000
  0.00000000  0.71428571  0.57142857
  0.00000000  0.71428571  0.64285714
  0.00000000  0.71428571  0.71428571
  0.00000000  0.71428571  0.78571429
  0.00000000  0.71428571  0.85714286
  0.00000000  0.71428571  0.92857143
  0.00000000  0.78571429  0.00000000
  0.00000000  0.78571429  0.07142857
  0.00000000  0.78571429  0.14285714
  0.00000000  0.78571429  0.21428571
  0.00000000  0.78571429  0.28571429
  0.00000000  0.78571429  0.35714286
  0.00000000  0.78571429  0.42857143
  0.00000000  0.78571429  0.50000000
  0.00000000  0.78571429  0.57142857
  0.00000000  0.78571429  0.64285714
  0.00000000  0.78571429  0.71428571
  0.00000000  0.78571429  0.78571429
  0.00000000  0.78571429  0.85714286
  0.00000000  0.78571429  0.92857143
  0.00000000  0.85714286  0.00000000
  0.00000000  0.85714286  0.07142857
  0.00000000  0.85714286  0.14285714
  0.00000000  0.85714286  0.21428571
  0.00000000  0.85714286  0.28571429
  0.00000000  0.85714286  0.35714286
  0.00000000  0.85714286  0.42857143
  0.00000000  0.85714286  0.50000000
  0.00000000  0.85714286  0.57142857
  0.00000000  0.85714286  0.64285714
  0.00000000  0.85714286  0.71428571
  0.00000000  0.85714286  0.78571429
  0.00000000  0.85714286  0.85714286
  0.00000000  0.85714286  0.92857143
  0.00000000  0.92857143  0.00000000
  0.00000000  0.92857143  0.07142857
  0.00000000  0.92857143  0.14285714
  0.00000000  0.92857143  0.21428571
  0.00000000  0.92857143  0.28571429
  0.00000000  0.92857143  0.35714286
  0.00000000  0.92857143  0.42857143
  0.00000000  0.92857143  0.50000000
  0.00000000  0.92857143  0.57142857
  0.00000000  0.92857143  0.64285714
  0.00000000  0.92857143  0.71428571
  0.00000000  0.92857143  0.78571429
  0.00000000  0.92857143  0.85714286
  0.00000000  0.92857143  0.92857143
  0.07142857  0.00000000  0.00000000
  0.07142857  0.00000000  0.07142857
  0.07142857  0.00000000  0.14285714
  0.07142857  0.00000000  0.21428571
  0.07142857  0.00000000  0.28571429
  0.07142857  0.00000000  0.35714286
  0.07142857  0.00000000  0.42857143
  0.07142857  0.00000000  0.50000000
  0.07142857  0.00000000  0.57142857
  0.07142857  0.00000000  0.64285714
  0.07142857  0.00000000  0.71428571
  0.07142857  0.00000000  0.78571429
  0.07142857  0.00000000  0.85714286
  0.07142857  0.00000000  0.92857143
  0.07142857  0.07142857  0.00000000
  0.07142857  0.07142857  0.07142857
  0.07142857  0.07142857  0.14285714
  0.07142857  0.07142857  0.21428571
  0.07142857  0.07142857  0.28571429
  0.07142857  0.07142857  0.35714286
  0.07142857  0.07142857  0.42857143
  0.07142857  0.07142857  0.50000000
  0.07142857  0.07142857  0.57142857
  0.07142857  0.07142857  0.64285714
  0.07142857  0.07142857  0.71428571
  0.07142857  0.07142857  0.78571429
  0.07142857  0.07142857  0.85714286
  0.07142857  0.07142857  0.92857143
  0.07142857  0.14285714  0.00000000
  0.07142857  0.14285714  0.07142857
  0.07142857  0.14285714  0.14285714
  0.07142857  0.14285714  0.21428571
  0.07142857  0.14285714  0.28571429
  0.07142857  0.14285714  0.35714286
  0.07142857  0.14285714  0.42857143
  0.07142857  0.14285714  0.50000000
  0.07142857  0.14285714  0.57142857
  0.07142857  0.14285714  0.64285714
  0.07142857  0.14285714  0.71428571
  0.07142857  0.14285714  0.78571429
  0.07142857  0.14285714  0.85714286
  0.07142857  0.14285714  0.92857143
  0.07142857  0.21428571  0.00000000
  0.07142857  0.21428571  0.07142857
  0.07142857  0.21428571  0.14285714
  0.07142857  0.21428571  0.21428571
  0.07142857  0.21428571  0.28571429
  0.07142857  0.21428571  0.35714286
  0.07142857  0.21428571  0.42857143
  0.07142857  0.21428571  0.50000000
  0.07142857  0.21428571  0.57142857
  0.07142857  0.21428571  0.64285714
  0.07142857  0.21428571  0.71428571
  0.07142857  0.21428571  0.78571429
  0.07142857  0.21428571  0.85714286
  0.07142857  0.21428571  0.92857143
  0.07142857  0.28571429  0.00000000
  0.07142857  0.28571429  0.07142857
  0.07142857  0.28571429  0.14285714
  0.07142857  0.28571429  0.21428571
  0.07142857  0.28571429  0.28571429
  0.07142857  0.28571429  0.35714286
  0.07142857  0.28571429  0.42857143
  0.07142857  0.28571429  0.50000000
  0.07142857  0.28571429  0.57142857
  0.07142857  0.28571429  0.64285714
  0.07142857  0.28571429  0.71428571
  0.07142857  0.28571429  0.78571429
  0.07142857  0.28571429  0.85714286
  0.07142857  0.28571429  0.92857143
  0.07142857  0.35714286  0.00000000
  0.07142857  0.35714286  0.07142857
  0.07142857  0.35714286  0.14285714
  0.07142857  0.35714286  0.21428571
  0.07142857  0.35714286  0.28571429
  0.07142857  0.35714286  0.35714286
  0.07142857  0.35714286  0.42857143
  0.07142857  0.35714286  0.50000000
  0.07142857  0.35714286  0.57142857
  0.07142857  0.35714286  0.64285714
  0.07142857  0.35714286  0.71428571
  0.07142857  0.35714286  0.78571429
  0.07142857  0.35714286  0.85714286
  0.07142857  0.35714286  0.92857143
  0.07142857  0.42857143  0.00000000
  0.07142857  0.42857143  0.07142857
  0.07142857  0.42857143  0.14285714
  0.07142857  0.42857143  0.21428571
  0.07142857  0.42857143  0.28571429
  0.07142857  0.42857143  0.35714286
  0.07142857  0.42857143  0.42857143
  0.07142857  0.42857143  0.50000000
  0.07142857  0.42857143  0.57142857
  0.07142857  0.42857143  0.64285714
  0.07142857  0.42857143  0.71428571
  0.07142857  0.42857143  0.78571429
  0.07142857  0.42857143  0.85714286
  0.07142857  0.42857143  0.92857143
  0.07142857  0.50000000  0.00000000
  0.07142857  0.50000000  0.07142857
  0.07142857  0.50000000  0.14285714
  0.07142857  0.50000000  0.21428571
  0.07142857  0.50000000  0.28571429
  0.07142857  0.50000000  0.35714286
  0.07142857  0.50000000  0.42857143
  0.07142857  0.50000000  0.50000000
  0.07142857  0.50000000  0.57142857
  0.07142857  0.50000000  0.64285714
  0.07142857  0.50000000  0.71428571
  0.07142857  0.50000000  0.78571429
  0.07142857  0.50000000  0.85714286
  0.07142857  0.50000000  0.92857143
  0.07142857  0.57142857  0.00000000
  0.07142857  0.57142857  0.07142857
  0.07142857  0.57142857  0.14285714
  0.07142857  0.57142857  0.21428571
  0.07142857  0.57142857  0.28571429
  0.07142857  0.57142857  0.35714286
  0.07142857  0.57142857  0.42857143
  0.07142857  0.57142857  0.50000000
  0.07142857  0.57142857  0.57142857
  0.07142857  0.57142857  0.64285714
  0.07142857  0.57142857  0.71428571
  0.07142857  0.57142857  0.78571429
  0.07142857  0.57142857  0.85714286
  0.07142857  0.57142857  0.92857143
  0.07142857  0.64285714  0.00000000
  0.07142857  0.64285714  0.07142857
  0.07142857  0.64285714  0.14285714
  0.07142857  0.64285714  0.21428571
  0.07142857  0.64285714  0.28571429
  0.07142857  0.64285714  0.35714286
  0.07142857  0.64285714  0.42857143
  0.07142857  0.64285714  0.50000000
  0.07142857  0.64285714  0.57142857
  0.07142857  0.64285714  0.64285714
  0.07142857  0.64285714  0.71428571
  0.07142857  0.64285714  0.78571429
  0.07142857  0.64285714  0.85714286
  0.07142857  0.64285714  0.92857143
  0.07142857  0.71428571  0.00000000
  0.07142857  0.71428571  0.07142857
  0.07142857  0.71428571  0.14285714
  0.07142857  0.71428571  0.21428571
  0.07142857  0.71428571  0.28571429
  0.07142857  0.71428571  0.35714286
  0.07142857  0.71428571  0.42857143
  0.07142857  0.71428571  0.50000000
  0.07142857  0.71428571  0.57142857
  0.07142857  0.71428571  0.64285714
  0.07142857  0.71428571  0.71428571
  0.07142857  0.71428571  0.78571429
  0.07142857  0.71428571  0.85714286
  0.07142857  0.71428571  0.92857143
  0.07142857  0.78571429  0.00000000
  0.07142857  0.78571429  0.07142857
  0.07142857  0.78571429  0.14285714
  0.07142857  0.78571429  0.21428571
  0.07142857  0.78571429  0.28571429
  0.07142857  0.78571429  0.35714286
  0.07142857  0.78571429  0.42857143
  0.07142857  0.78571429  0.50000000
  0.07142857  0.78571429  0.57142857
  0.07142857  0.78571429  0.64285714
  0.07142857  0.78571429  0.71428571
  0.07142857  0.78571429  0.78571429
  0.07142857  0.78571429  0.85714286
  0.07142857  0.78571429  0.92857143
  0.07142857  0.85714286  0.00000000
  0.07142857  0.85714286  0.07142857
  0.07142857  0.85714286  0.14285714
  0.07142857  0.85714286  0.21428571
  0.07142857  0.85714286  0.28571429
  0.07142857  0.85714286  0.35714286
  0.07142857  0.85714286  0.42857143
  0.07142857  0.85714286  0.50000000
  0.07142857  0.85714286  0.57142857
  0.07142857  0.85714286  0.64285714
  0.07142857  0.85714286  0.71428571
  0.07142857  0.85714286  0.78571429
  0.07142857  0.85714286  0.85714286
  0.07142857  0.85714286  0.92857143
  0.07142857  0.92857143  0.00000000
  0.07142857  0.92857143  0.07142857
  0.07142857  0.92857143  0.14285714
  0.07142857  0.92857143  0.21428571
  0.07142857  0.92857143  0.28571429
  0.07142857  0.92857143  0.35714286
  0.07142857  0.92857143  0.42857143
  0.07142857  0.92857143  0.50000000
  0.07142857  0.92857143  0.57142857
  0.07142857  0.92857143  0.64285714
  0.07142857  0.92857143  0.71428571
  0.07142857  0.92857143  0.78571429
  0.07142857  0.92857143  0.85714286
  0.07142857  0.92857143  0.92857143
  0.14285714  0.00000000  0.00000000
  0.14285714  0.00000000  0.07142857
  0.14285714  0.00000000  0.14285714
  0.14285714  0.00000000  0.21428571
  0.14285714  0.00000000  0.28571429
  0.14285714  0.00000000  0.35714286
  0.14285714  0.00000000  0.42857143
  0.14285714  0.00000000  0.50000000
  0.14285714  0.00000000  0.57142857
  0.14285714  0.00000000  0.64285714
  0.14285714  0.00000000  0.71428571
  0.14285714  0.00000000  0.78571429
  0.14285714  0.00000000  0.85714286
  0.14285714  0.00000000  0.92857143
  0.14285714  0.07142857  0.00000000
  0.14285714  0.07142857  0.07142857
  0.14285714  0.07142857  0.14285714
  0.14285714  0.07142857  0.21428571
  0.14285714  0.07142857  0.28571429
  0.14285714  0.07142857  0.35714286
  0.14285714  0.07142857  0.42857143
  0.14285714  0.07142857  0.50000000
  0.14285714  0.07142857  0.57142857
  0.14285714  0.07142857  0.64285714
  0.14285714  0.07142857  0.71428571
  0.14285714  0.07142857  0.78571429
  0.14285714  0.07142857  0.85714286
  0.14285714  0.07142857  0.92857143
  0.14285714  0.14285714  0.00000000
  0.14285714  0.14285714  0.07142857
  0.14285714  0.14285714  0.14285714
  0.14285714  0.14285714  0.21428571
  0.14285714  0.14285714  0.28571429
  0.14285714  0.14285714  0.35714286
  0.14285714  0.14285714  0.42857143
  0.14285714  0.14285714  0.50000000
  0.14285714  0.14285714  0.57142857
  0.14285714  0.14285714  0.64285714
  0.14285714  0.14285714  0.71428571
  0.14285714  0.14285714  0.78571429
  0.14285714  0.14285714  0.85714286
  0.14285714  0.14285714  0.92857143
  0.14285714  0.21428571  0.00000000
  0.14285714  0.21428571  0.07142857
  0.14285714  0.21428571  0.14285714
  0.14285714  0.21428571  0.21428571
  0.14285714  0.21428571  0.28571429
  0.14285714  0.21428571  0.35714286
  0.14285714  0.21428571  0.42857143
  0.14285714  0.21428571  0.50000000
  0.14285714  0.21428571  0.57142857
  0.14285714  0.21428571  0.64285714
  0.14285714  0.21428571  0.71428571
  0.14285714  0.21428571  0.78571429
  0.14285714  0.21428571  0.85714286
  0.14285714  0.21428571  0.92857143
  0.14285714  0.28571429  0.00000000
  0.14285714  0.28571429  0.07142857
  0.14285714  0.28571429  0.14285714
  0.14285714  0.28571429  0.21428571
  0.14285714  0.28571429  0.28571429
  0.14285714  0.28571429  0.35714286
  0.14285714  0.28571429  0.42857143
  0.14285714  0.28571429  0.50000000
  0.14285714  0.28571429  0.57142857
  0.14285714  0.28571429  0.64285714
  0.14285714  0.28571429  0.71428571
  0.14285714  0.28571429  0.78571429
  0.14285714  0.28571429  0.85714286
  0.14285714  0.28571429  0.92857143
  0.14285714  0.35714286  0.00000000
  0.14285714  0.35714286  0.07142857
  0.14285714  0.35714286  0.14285714
  0.14285714  0.35714286  0.21428571
  0.14285714  0.35714286  0.28571429
  0.14285714  0.35714286  0.35714286
  0.14285714  0.35714286  0.42857143
  0.14285714  0.35714286  0.50000000
  0.14285714  0.35714286  0.57142857
  0.14285714  0.35714286  0.64285714
  0.14285714  0.35714286  0.71428571
  0.14285714  0.35714286  0.78571429
  0.14285714  0.35714286  0.85714286
  0.14285714  0.35714286  0.92857143
  0.14285714  0.42857143  0.00000000
  0.14285714  0.42857143  0.07142857
  0.14285714  0.42857143  0.14285714
  0.14285714  0.42857143  0.21428571
  0.14285714  0.42857143  0.28571429
  0.14285714  0.42857143  0.35714286
  0.14285714  0.42857143  0.42857143
  0.14285714  0.42857143  0.50000000
  0.14285714  0.42857143  0.57142857
  0.14285714  0.42857143  0.64285714
  0.14285714  0.42857143  0.71428571
  0.14285714  0.42857143  0.78571429
  0.14285714  0.42857143  0.85714286
  0.14285714  0.42857143  0.92857143
  0.14285714  0.50000000  0.00000000
  0.14285714  0.50000000  0.07142857
  0.14285714  0.50000000  0.14285714
  0.14285714  0.50000000  0.21428571
  0.14285714  0.50000000  0.28571429
  0.14285714  0.50000000  0.35714286
  0.14285714  0.50000000  0.42857143
  0.14285714  0.50000000  0.50000000
  0.14285714  0.50000000  0.57142857
  0.14285714  0.50000000  0.64285714
  0.14285714  0.50000000  0.71428571
  0.14285714  0.50000000  0.78571429
  0.14285714  0.50000000  0.85714286
  0.14285714  0.50000000  0.92857143
  0.14285714  0.57142857  0.00000000
  0.14285714  0.57142857  0.07142857
  0.14285714  0.57142857  0.14285714
  0.14285714  0.57142857  0.21428571
  0.14285714  0.57142857  0.28571429
  0.14285714  0.57142857  0.35714286
  0.14285714  0.57142857  0.42857143
  0.14285714  0.57142857  0.50000000
  0.14285714  0.57142857  0.57142857
  0.14285714  0.57142857  0.64285714
  0.14285714  0.57142857  0.71428571
  0.14285714  0.57142857  0.78571429
  0.14285714  0.57142857  0.85714286
  0.14285714  0.57142857  0.92857143
  0.14285714  0.64285714  0.00000000
  0.14285714  0.64285714  0.07142857
  0.14285714  0.64285714  0.14285714
  0.14285714  0.64285714  0.21428571
  0.14285714  0.64285714  0.28571429
  0.14285714  0.64285714  0.35714286
  0.14285714  0.64285714  0.42857143
  0.14285714  0.64285714  0.50000000
  0.14285714  0.64285714  0.57142857
  0.14285714  0.64285714  0.64285714
  0.14285714  0.64285714  0.71428571
  0.14285714  0.64285714  0.78571429
  0.14285714  0.64285714  0.85714286
  0.14285714  0.64285714  0.92857143
  0.14285714  0.71428571  0.00000000
  0.14285714  0.71428571  0.07142857
  0.14285714  0.71428571  0.14285714
  0.14285714  0.71428571  0.21428571
  0.14285714  0.71428571  0.28571429
  0.14285714  0.71428571  0.35714286
  0.14285714  0.71428571  0.42857143
  0.14285714  0.71428571  0.50000000
  0.14285714  0.71428571  0.57142857
  0.14285714  0.71428571  0.64285714
  0.14285714  0.71428571  0.71428571
  0.14285714  0.71428571  0.78571429
  0.14285714  0.71428571  0.85714286
  0.14285714  0.71428571  0.92857143
  0.14285714  0.78571429  0.00000000
  0.14285714  0.78571429  0.07142857
  0.14285714  0.78571429  0.14285714
  0.14285714  0.78571429  0.21428571
  0.14285714  0.78571429  0.28571429
  0.14285714  0.78571429  0.35714286
  0.14285714  0.78571429  0.42857143
  0.14285714  0.78571429  0.50000000
  0.14285714  0.78571429  0.57142857
  0.14285714  0.78571429  0.64285714
  0.14285714  0.78571429  0.71428571
  0.14285714  0.78571429  0.78571429
  0.14285714  0.78571429  0.85714286
  0.14285714  0.78571429  0.92857143
  0.14285714  0.85714286  0.00000000
  0.14285714  0.85714286  0.07142857
  0.14285714  0.85714286  0.14285714
  0.14285714  0.85714286  0.21428571
  0.14285714  0.85714286  0.28571429
  0.14285714  0.85714286  0.35714286
  0.14285714  0.85714286  0.42857143
  0.14285714  0.85714286  0.50000000
  0.14285714  0.85714286  0.57142857
  0.14285714  0.85714286  0.64285714
  0.14285714  0.85714286  0.71428571
  0.14285714  0.85714286  0.78571429
  0.14285714  0.85714286  0.85714286
  0.14285714  0.85714286  0.92857143
  0.14285714  0.92857143  0.00000000
  0.14285714  0.92857143  0.07142857
  0.14285714  0.92857143  0.14285714
  0.14285714  0.92857143  0.21428571
  0.14285714  0.92857143  0.28571429
  0.14285714  0.92857143  0.35714286
  0.14285714  0.92857143  0.42857143
  0.14285714  0.92857143  0.50000000
  0.14285714  0.92857143  0.57142857
  0.14285714  0.92857143  0.64285714
  0.14285714  0.92857143  0.71428571
  0.14285714  0.92857143  0.78571429
  0.14285714  0.92857143  0.85714286
  0.14285714  0.92857143  0.92857143
  0.21428571  0.00000000  0.00000000
  0.21428571  0.00000000  0.07142857
  0.21428571  0.00000000  0.14285714
  0.21428571  0.00000000  0.21428571
  0.21428571  0.00000000  0.28571429
  0.21428571  0.00000000  0.35714286
  0.21428571  0.00000000  0.42857143
  0.21428571  0.00000000  0.50000000
  0.21428571  0.00000000  0.57142857
  0.21428571  0.00000000  0.64285714
  0.21428571  0.00000000  0.71428571
  0.21428571  0.00000000  0.78571429
  0.21428571  0.00000000  0.85714286
  0.21428571  0.00000000  0.92857143
  0.21428571  0.07142857  0.00000000
  0.21428571  0.07142857  0.07142857
  0.21428571  0.07142857  0.14285714
  0.21428571  0.07142857  0.21428571
  0.21428571  0.07142857  0.28571429
  0.21428571  0.07142857  0.35714286
  0.21428571  0.07142857  0.42857143
  0.21428571  0.07142857  0.50000000
  0.21428571  0.07142857  0.57142857
  0.21428571  0.07142857  0.64285714
  0.21428571  0.07142857  0.71428571
  0.21428571  0.07142857  0.78571429
  0.21428571  0.07142857  0.85714286
  0.21428571  0.07142857  0.92857143
  0.21428571  0.14285714  0.00000000
  0.21428571  0.14285714  0.07142857
  0.21428571  0.14285714  0.14285714
  0.21428571  0.14285714  0.21428571
  0.21428571  0.14285714  0.28571429
  0.21428571  0.14285714  0.35714286
  0.21428571  0.14285714  0.42857143
  0.21428571  0.14285714  0.50000000
  0.21428571  0.14285714  0.57142857
  0.21428571  0.14285714  0.64285714
  0.21428571  0.14285714  0.71428571
  0.21428571  0.14285714  0.78571429
  0.21428571  0.14285714  0.85714286
  0.21428571  0.14285714  0.92857143
  0.21428571  0.21428571  0.00000000
  0.21428571  0.21428571  0.07142857
  0.21428571  0.21428571  0.14285714
  0.21428571  0.21428571  0.21428571
  0.21428571  0.21428571  0.28571429
  0.21428571  0.21428571  0.35714286
  0.21428571  0.21428571  0.42857143
  0.21428571  0.21428571  0.50000000
  0.21428571  0.21428571  0.57142857
  0.21428571  0.21428571  0.64285714
  0.21428571  0.21428571  0.71428571
  0.21428571  0.21428571  0.78571429
  0.21428571  0.21428571  0.85714286
  0.21428571  0.21428571  0.92857143
  0.21428571  0.28571429  0.00000000
  0.21428571  0.28571429  0.07142857
  0.21428571  0.28571429  0.14285714
  0.21428571  0.28571429  0.21428571
  0.21428571  0.28571429  0.28571429
  0.21428571  0.28571429  0.35714286
  0.21428571  0.28571429  0.42857143
  0.21428571  0.28571429  0.50000000
  0.21428571  0.28571429  0.57142857
  0.21428571  0.28571429  0.64285714
  0.21428571  0.28571429  0.71428571
  0.21428571  0.28571429  0.78571429
  0.21428571  0.28571429  0.85714286
  0.21428571  0.28571429  0.92857143
  0.21428571  0.35714286  0.00000000
  0.21428571  0.35714286  0.07142857
  0.21428571  0.35714286  0.14285714
  0.21428571  0.35714286  0.21428571
  0.21428571  0.35714286  0.28571429
  0.21428571  0.35714286  0.35714286
  0.21428571  0.35714286  0.42857143
  0.21428571  0.35714286  0.50000000
  0.21428571  0.35714286  0.57142857
  0.21428571  0.35714286  0.64285714
  0.21428571  0.35714286  0.71428571
  0.21428571  0.35714286  0.78571429
  0.21428571  0.35714286  0.85714286
  0.21428571  0.35714286  0.92857143
  0.21428571  0.42857143  0.00000000
  0.21428571  0.42857143  0.07142857
  0.21428571  0.42857143  0.14285714
  0.21428571  0.42857143  0.21428571
  0.21428571  0.42857143  0.28571429
  0.21428571  0.42857143  0.35714286
  0.21428571  0.42857143  0.42857143
  0.21428571  0.42857143  0.50000000
  0.21428571  0.42857143  0.57142857
  0.21428571  0.42857143  0.64285714
  0.21428571  0.42857143  0.71428571
  0.21428571  0.42857143  0.78571429
  0.21428571  0.42857143  0.85714286
  0.21428571  0.42857143  0.92857143
  0.21428571  0.50000000  0.00000000
  0.21428571  0.50000000  0.07142857
  0.21428571  0.50000000  0.14285714
  0.21428571  0.50000000  0.21428571
  0.21428571  0.50000000  0.28571429
  0.21428571  0.50000000  0.35714286
  0.21428571  0.50000000  0.42857143
  0.21428571  0.50000000  0.50000000
  0.21428571  0.50000000  0.57142857
  0.21428571  0.50000000  0.64285714
  0.21428571  0.50000000  0.71428571
  0.21428571  0.50000000  0.78571429
  0.21428571  0.50000000  0.85714286
  0.21428571  0.50000000  0.92857143
  0.21428571  0.57142857  0.00000000
  0.21428571  0.57142857  0.07142857
  0.21428571  0.57142857  0.14285714
  0.21428571  0.57142857  0.21428571
  0.21428571  0.57142857  0.28571429
  0.21428571  0.57142857  0.35714286
  0.21428571  0.57142857  0.42857143
  0.21428571  0.57142857  0.50000000
  0.21428571  0.57142857  0.57142857
  0.21428571  0.57142857  0.64285714
  0.21428571  0.57142857  0.71428571
  0.21428571  0.57142857  0.78571429
  0.21428571  0.57142857  0.85714286
  0.21428571  0.57142857  0.92857143
  0.21428571  0.64285714  0.00000000
  0.21428571  0.64285714  0.07142857
  0.21428571  0.64285714  0.14285714
  0.21428571  0.64285714  0.21428571
  0.21428571  0.64285714  0.28571429
  0.21428571  0.64285714  0.35714286
  0.21428571  0.64285714  0.42857143
  0.21428571  0.64285714  0.50000000
  0.21428571  0.64285714  0.57142857
  0.21428571  0.64285714  0.64285714
  0.21428571  0.64285714  0.71428571
  0.21428571  0.64285714  0.78571429
  0.21428571  0.64285714  0.85714286
  0.21428571  0.64285714  0.92857143
  0.21428571  0.71428571  0.00000000
  0.21428571  0.71428571  0.07142857
  0.21428571  0.71428571  0.14285714
  0.21428571  0.71428571  0.21428571
  0.21428571  0.71428571  0.28571429
  0.21428571  0.71428571  0.35714286
  0.21428571  0.71428571  0.42857143
  0.21428571  0.71428571  0.50000000
  0.21428571  0.71428571  0.57142857
  0.21428571  0.71428571  0.64285714
  0.21428571  0.71428571  0.71428571
  0.21428571  0.71428571  0.78571429
  0.21428571  0.71428571  0.85714286
  0.21428571  0.71428571  0.92857143
  0.21428571  0.78571429  0.00000000
  0.21428571  0.78571429  0.07142857
  0.21428571  0.78571429  0.14285714
  0.21428571  0.78571429  0.21428571
  0.21428571  0.78571429  0.28571429
  0.21428571  0.78571429  0.35714286
  0.21428571  0.78571429  0.42857143
  0.21428571  0.78571429  0.50000000
  0.21428571  0.78571429  0.57142857
  0.21428571  0.78571429  0.64285714
  0.21428571  0.78571429  0.71428571
  0.21428571  0.78571429  0.78571429
  0.21428571  0.78571429  0.85714286
  0.21428571  0.78571429  0.92857143
  0.21428571  0.85714286  0.00000000
  0.21428571  0.85714286  0.07142857
  0.21428571  0.85714286  0.14285714
  0.21428571  0.85714286  0.21428571
  0.21428571  0.85714286  0.28571429
  0.21428571  0.85714286  0.35714286
  0.21428571  0.85714286  0.42857143
  0.21428571  0.85714286  0.50000000
  0.21428571  0.85714286  0.57142857
  0.21428571  0.85714286  0.64285714
  0.21428571  0.85714286  0.71428571
  0.21428571  0.85714286  0.78571429
  0.21428571  0.85714286  0.85714286
  0.21428571  0.85714286  0.92857143
  0.21428571  0.92857143  0.00000000
  0.21428571  0.92857143  0.07142857
  0.21428571  0.92857143  0.14285714
  0.21428571  0.92857143  0.21428571
  0.21428571  0.92857143  0.28571429
  0.21428571  0.92857143  0.35714286
  0.21428571  0.92857143  0.42857143
  0.21428571  0.92857143  0.50000000
  0.21428571  0.92857143  0.57142857
  0.21428571  0.92857143  0.64285714
  0.21428571  0.92857143  0.71428571
  0.21428571  0.92857143  0.78571429
  0.21428571  0.92857143  0.85714286
  0.21428571  0.92857143  0.92857143
  0.28571429  0.00000000  0.00000000
  0.28571429  0.00000000  0.07142857
  0.28571429  0.00000000  0.14285714
  0.28571429  0.00000000  0.21428571
  0.28571429  0.00000000  0.28571429
  0.28571429  0.00000000  0.35714286
  0.28571429  0.00000000  0.42857143
  0.28571429  0.00000000  0.50000000
  0.28571429  0.00000000  0.57142857
  0.28571429  0.00000000  0.64285714
  0.28571429  0.00000000  0.71428571
  0.28571429  0.00000000  0.78571429
  0.28571429  0.00000000  0.85714286
  0.28571429  0.00000000  0.92857143
  0.28571429  0.07142857  0.00000000
  0.28571429  0.07142857  0.07142857
  0.28571429  0.07142857  0.14285714