As8 Se12
1.0
   4.4906839680805470    0.0000000000000000    0.0000000000000000
   0.0000000000000000   10.3767209499999993    0.0000000000000000
  -4.3932399733544711    0.0000000000000000   12.0536276040854062
As Se
8 12
direct
   0.3803475400000002    0.1973829999999999    0.2633721700000001 As
   0.6196524599999997    0.6973830000000001    0.2366278299999998 As
   0.6196524599999998    0.8026170000000000    0.7366278300000000 As
   0.3803475400000002    0.3026170000000000    0.7633721700000002 As
   0.1088533300000001    0.3219003499999999    0.4849364400000001 As
   0.8911466699999999    0.8219003499999999    0.0150635599999998 As
   0.8911466700000000    0.6780996500000001    0.5150635599999999 As
   0.1088533300000001    0.1780996500000000    0.9849364400000002 As
   0.8689071700000004    0.1242523399999999    0.4008995200000001 Se
   0.1310928299999996    0.6242523400000000    0.0991004799999998 Se
   0.1310928299999996    0.8757476600000000    0.5991004799999999 Se
   0.8689071700000004    0.3757476600000000    0.9008995200000002 Se
   0.3143014100000001    0.4003827399999999    0.3441763300000001 Se
   0.6856985899999999    0.9003827400000000    0.1558236699999998 Se
   0.6856985900000000    0.5996172600000000    0.6558236700000000 Se
   0.3143014100000001    0.0996172600000000    0.8441763300000001 Se
   0.5486339600000003    0.2935855800000000    0.1195695400000001 Se
   0.4513660399999996    0.7935855800000000    0.3804304599999998 Se
   0.4513660399999996    0.7064144200000000    0.8804304599999999 Se
   0.5486339600000004    0.2064144200000000    0.6195695400000002 Se
