&inputpp
    prefix = 'KRrBr2'
    outdir='out/',
    plot_num=10,
    emin = 6.19360041882495,
    emax = 7.19360041882495,
    delta_e = 0.1,
/
&plot
    iflag=3,
    output_format=6,
    fileout='ldos.cube',
/
