&inputpp
    prefix = 'mp-1500'
    outdir='out/',
    plot_num=10,
    emin = 7.731183889398775,
    emax = 8.731183889398775,
    delta_e = 0.1,
/
&plot
    iflag=3,
    output_format=6,
    fileout='ldos.cube',
/
