Na1 Br1
1.0
  -2.9615420263758350    0.0000000000000000    2.9615420263758350
   0.0000000000000000    2.9615420263758350    2.9615420263758350
  -2.9615420263758350    2.9615420263758350    0.0000000000000000
Na Br
1 1
direct
   0.0000000000000000    0.0000000000000000    0.0000000000000000 Na
   0.4999999615946624    0.5000000384053376    0.4999999615946624 Br
