Ca1 S1
1.0
  -2.8523740726195426    0.0000000000000000    2.8523740726195426
   0.0000000000000000    2.8523740726195426    2.8523740726195426
  -2.8523740726195426    2.8523740726195426    0.0000000000000000
Ca S
1 1
direct
   0.0000000000000000    0.0000000000000000    0.0000000000000000 Ca
   0.4999999615946624    0.5000000384053376    0.4999999615946624 S
