K1 Br1
1.0
  -3.2945407167429286    0.0000000000000000    3.2945407167429286
   0.0000000000000000    3.2945407167429286    3.2945407167429286
  -3.2945407167429286    3.2945407167429286    0.0000000000000000
K Br
1 1
direct
   0.0000000000000000    0.0000000000000000    0.0000000000000000 K
   0.4999999615946624    0.5000000384053376    0.4999999615946624 Br
