&CONTROL
  calculation = 'nscf',
  disk_io = 'low',
  outdir = 'out/',
  prefix = 'mp-1550',
  pseudo_dir = '/usr/scratch4/magr4826/Promotion/Python/Code/devEb/pseudo/SG15',
/
&SYSTEM
  celldm(1) = 10.342408779590917,
  degauss = 0.0004593661607577953,
  ecutwfc = 130,
  force_symmorphic = .FALSE.,
  ibrav = 2,
  nbnd = 16,
  nosym = .FALSE.,
  occupations = 'smearing',
  smearing = 'gaussian',
  nat = 2,
  ntyp = 2,
/
&ELECTRONS
  conv_thr = 1d-10,
  diago_full_acc = .TRUE.,
  diago_thr_init = 5d-06,
  diagonalization = 'david',
/
&IONS
/
&CELL
/
ATOMIC_SPECIES
  Al  26.9815 Al.upf
  P  30.9738 P.upf
ATOMIC_POSITIONS crystal
  Al 0.00000000 0.00000000 0.00000000
  P 0.74999998 0.75000006 0.74999998
K_POINTS automatic
  12 12 12 0 0 0

