Li1 H1
1.0
  -2.0086192376325496    0.0000000000000000    2.0086192376325496
   0.0000000000000000    2.0086192376325496    2.0086192376325496
  -2.0086192376325496    2.0086192376325496    0.0000000000000000
Li H
1 1
direct
   0.0000000000000000    0.0000000000000000    0.0000000000000000 Li
   0.4999999615946624    0.5000000384053376    0.4999999615946624 H
