&inputpp
    prefix = 'mp-23037'
    outdir='out/',
    plot_num=10,
    emin = 5.846165170101059,
    emax = 6.846165170101059,
    delta_e = 0.1,
/
&plot
    iflag=3,
    output_format=6,
    fileout='ldos.cube',
/
