num_wann = 6
exclude_bands = 1-10 17-32
num_iter = 500

auto_projections =.true.

begin atoms_frac
Al 0.33333335893689175 0.6666666410631084 0.49928703835057187
Al 0.6666667178737834 0.3333333589368917 0.9992870767559093
N 0.33333335893689175 0.6666666410631084 0.8807130676481603
N 0.6666667178737834 0.3333333589368917 0.38071302924282263
end atoms_frac

geninterp = true
geninterp_alsofirstder = true

begin unit_cell_cart
3.128588 0.000000 0.000000
-1.564294 2.709437 0.000000
0.000000 0.000000 5.016955
end unit_cell_cart

mp_grid : 10 10 6

begin kpoints
  0.00000000  0.00000000  0.00000000
  0.00000000  0.00000000  0.16666667
  0.00000000  0.00000000  0.33333333
  0.00000000  0.00000000  0.50000000
  0.00000000  0.00000000  0.66666667
  0.00000000  0.00000000  0.83333333
  0.00000000  0.10000000  0.00000000
  0.00000000  0.10000000  0.16666667
  0.00000000  0.10000000  0.33333333
  0.00000000  0.10000000  0.50000000
  0.00000000  0.10000000  0.66666667
  0.00000000  0.10000000  0.83333333
  0.00000000  0.20000000  0.00000000
  0.00000000  0.20000000  0.16666667
  0.00000000  0.20000000  0.33333333
  0.00000000  0.20000000  0.50000000
  0.00000000  0.20000000  0.66666667
  0.00000000  0.20000000  0.83333333
  0.00000000  0.30000000  0.00000000
  0.00000000  0.30000000  0.16666667
  0.00000000  0.30000000  0.33333333
  0.00000000  0.30000000  0.50000000
  0.00000000  0.30000000  0.66666667
  0.00000000  0.30000000  0.83333333
  0.00000000  0.40000000  0.00000000
  0.00000000  0.40000000  0.16666667
  0.00000000  0.40000000  0.33333333
  0.00000000  0.40000000  0.50000000
  0.00000000  0.40000000  0.66666667
  0.00000000  0.40000000  0.83333333
  0.00000000  0.50000000  0.00000000
  0.00000000  0.50000000  0.16666667
  0.00000000  0.50000000  0.33333333
  0.00000000  0.50000000  0.50000000
  0.00000000  0.50000000  0.66666667
  0.00000000  0.50000000  0.83333333
  0.00000000  0.60000000  0.00000000
  0.00000000  0.60000000  0.16666667
  0.00000000  0.60000000  0.33333333
  0.00000000  0.60000000  0.50000000
  0.00000000  0.60000000  0.66666667
  0.00000000  0.60000000  0.83333333
  0.00000000  0.70000000  0.00000000
  0.00000000  0.70000000  0.16666667
  0.00000000  0.70000000  0.33333333
  0.00000000  0.70000000  0.50000000
  0.00000000  0.70000000  0.66666667
  0.00000000  0.70000000  0.83333333
  0.00000000  0.80000000  0.00000000
  0.00000000  0.80000000  0.16666667
  0.00000000  0.80000000  0.33333333
  0.00000000  0.80000000  0.50000000
  0.00000000  0.80000000  0.66666667
  0.00000000  0.80000000  0.83333333
  0.00000000  0.90000000  0.00000000
  0.00000000  0.90000000  0.16666667
  0.00000000  0.90000000  0.33333333
  0.00000000  0.90000000  0.50000000
  0.00000000  0.90000000  0.66666667
  0.00000000  0.90000000  0.83333333
  0.10000000  0.00000000  0.00000000
  0.10000000  0.00000000  0.16666667
  0.10000000  0.00000000  0.33333333
  0.10000000  0.00000000  0.50000000
  0.10000000  0.00000000  0.66666667
  0.10000000  0.00000000  0.83333333
  0.10000000  0.10000000  0.00000000
  0.10000000  0.10000000  0.16666667
  0.10000000  0.10000000  0.33333333
  0.10000000  0.10000000  0.50000000
  0.10000000  0.10000000  0.66666667
  0.10000000  0.10000000  0.83333333
  0.10000000  0.20000000  0.00000000
  0.10000000  0.20000000  0.16666667
  0.10000000  0.20000000  0.33333333
  0.10000000  0.20000000  0.50000000
  0.10000000  0.20000000  0.66666667
  0.10000000  0.20000000  0.83333333
  0.10000000  0.30000000  0.00000000
  0.10000000  0.30000000  0.16666667
  0.10000000  0.30000000  0.33333333
  0.10000000  0.30000000  0.50000000
  0.10000000  0.30000000  0.66666667
  0.10000000  0.30000000  0.83333333
  0.10000000  0.40000000  0.00000000
  0.10000000  0.40000000  0.16666667
  0.10000000  0.40000000  0.33333333
  0.10000000  0.40000000  0.50000000
  0.10000000  0.40000000  0.66666667
  0.10000000  0.40000000  0.83333333
  0.10000000  0.50000000  0.00000000
  0.10000000  0.50000000  0.16666667
  0.10000000  0.50000000  0.33333333
  0.10000000  0.50000000  0.50000000
  0.10000000  0.50000000  0.66666667
  0.10000000  0.50000000  0.83333333
  0.10000000  0.60000000  0.00000000
  0.10000000  0.60000000  0.16666667
  0.10000000  0.60000000  0.33333333
  0.10000000  0.60000000  0.50000000
  0.10000000  0.60000000  0.66666667
  0.10000000  0.60000000  0.83333333
  0.10000000  0.70000000  0.00000000
  0.10000000  0.70000000  0.16666667
  0.10000000  0.70000000  0.33333333
  0.10000000  0.70000000  0.50000000
  0.10000000  0.70000000  0.66666667
  0.10000000  0.70000000  0.83333333
  0.10000000  0.80000000  0.00000000
  0.10000000  0.80000000  0.16666667
  0.10000000  0.80000000  0.33333333
  0.10000000  0.80000000  0.50000000
  0.10000000  0.80000000  0.66666667
  0.10000000  0.80000000  0.83333333
  0.10000000  0.90000000  0.00000000
  0.10000000  0.90000000  0.16666667
  0.10000000  0.90000000  0.33333333
  0.10000000  0.90000000  0.50000000
  0.10000000  0.90000000  0.66666667
  0.10000000  0.90000000  0.83333333
  0.20000000  0.00000000  0.00000000
  0.20000000  0.00000000  0.16666667
  0.20000000  0.00000000  0.33333333
  0.20000000  0.00000000  0.50000000
  0.20000000  0.00000000  0.66666667
  0.20000000  0.00000000  0.83333333
  0.20000000  0.10000000  0.00000000
  0.20000000  0.10000000  0.16666667
  0.20000000  0.10000000  0.33333333
  0.20000000  0.10000000  0.50000000
  0.20000000  0.10000000  0.66666667
  0.20000000  0.10000000  0.83333333
  0.20000000  0.20000000  0.00000000
  0.20000000  0.20000000  0.16666667
  0.20000000  0.20000000  0.33333333
  0.20000000  0.20000000  0.50000000
  0.20000000  0.20000000  0.66666667
  0.20000000  0.20000000  0.83333333
  0.20000000  0.30000000  0.00000000
  0.20000000  0.30000000  0.16666667
  0.20000000  0.30000000  0.33333333
  0.20000000  0.30000000  0.50000000
  0.20000000  0.30000000  0.66666667
  0.20000000  0.30000000  0.83333333
  0.20000000  0.40000000  0.00000000
  0.20000000  0.40000000  0.16666667
  0.20000000  0.40000000  0.33333333
  0.20000000  0.40000000  0.50000000
  0.20000000  0.40000000  0.66666667
  0.20000000  0.40000000  0.83333333
  0.20000000  0.50000000  0.00000000
  0.20000000  0.50000000  0.16666667
  0.20000000  0.50000000  0.33333333
  0.20000000  0.50000000  0.50000000
  0.20000000  0.50000000  0.66666667
  0.20000000  0.50000000  0.83333333
  0.20000000  0.60000000  0.00000000
  0.20000000  0.60000000  0.16666667
  0.20000000  0.60000000  0.33333333
  0.20000000  0.60000000  0.50000000
  0.20000000  0.60000000  0.66666667
  0.20000000  0.60000000  0.83333333
  0.20000000  0.70000000  0.00000000
  0.20000000  0.70000000  0.16666667
  0.20000000  0.70000000  0.33333333
  0.20000000  0.70000000  0.50000000
  0.20000000  0.70000000  0.66666667
  0.20000000  0.70000000  0.83333333
  0.20000000  0.80000000  0.00000000
  0.20000000  0.80000000  0.16666667
  0.20000000  0.80000000  0.33333333
  0.20000000  0.80000000  0.50000000
  0.20000000  0.80000000  0.66666667
  0.20000000  0.80000000  0.83333333
  0.20000000  0.90000000  0.00000000
  0.20000000  0.90000000  0.16666667
  0.20000000  0.90000000  0.33333333
  0.20000000  0.90000000  0.50000000
  0.20000000  0.90000000  0.66666667
  0.20000000  0.90000000  0.83333333
  0.30000000  0.00000000  0.00000000
  0.30000000  0.00000000  0.16666667
  0.30000000  0.00000000  0.33333333
  0.30000000  0.00000000  0.50000000
  0.30000000  0.00000000  0.66666667
  0.30000000  0.00000000  0.83333333
  0.30000000  0.10000000  0.00000000
  0.30000000  0.10000000  0.16666667
  0.30000000  0.10000000  0.33333333
  0.30000000  0.10000000  0.50000000
  0.30000000  0.10000000  0.66666667
  0.30000000  0.10000000  0.83333333
  0.30000000  0.20000000  0.00000000
  0.30000000  0.20000000  0.16666667
  0.30000000  0.20000000  0.33333333
  0.30000000  0.20000000  0.50000000
  0.30000000  0.20000000  0.66666667
  0.30000000  0.20000000  0.83333333
  0.30000000  0.30000000  0.00000000
  0.30000000  0.30000000  0.16666667
  0.30000000  0.30000000  0.33333333
  0.30000000  0.30000000  0.50000000
  0.30000000  0.30000000  0.66666667
  0.30000000  0.30000000  0.83333333
  0.30000000  0.40000000  0.00000000
  0.30000000  0.40000000  0.16666667
  0.30000000  0.40000000  0.33333333
  0.30000000  0.40000000  0.50000000
  0.30000000  0.40000000  0.66666667
  0.30000000  0.40000000  0.83333333
  0.30000000  0.50000000  0.00000000
  0.30000000  0.50000000  0.16666667
  0.30000000  0.50000000  0.33333333
  0.30000000  0.50000000  0.50000000
  0.30000000  0.50000000  0.66666667
  0.30000000  0.50000000  0.83333333
  0.30000000  0.60000000  0.00000000
  0.30000000  0.60000000  0.16666667
  0.30000000  0.60000000  0.33333333
  0.30000000  0.60000000  0.50000000
  0.30000000  0.60000000  0.66666667
  0.30000000  0.60000000  0.83333333
  0.30000000  0.70000000  0.00000000
  0.30000000  0.70000000  0.16666667
  0.30000000  0.70000000  0.33333333
  0.30000000  0.70000000  0.50000000
  0.30000000  0.70000000  0.66666667
  0.30000000  0.70000000  0.83333333
  0.30000000  0.80000000  0.00000000
  0.30000000  0.80000000  0.16666667
  0.30000000  0.80000000  0.33333333
  0.30000000  0.80000000  0.50000000
  0.30000000  0.80000000  0.66666667
  0.30000000  0.80000000  0.83333333
  0.30000000  0.90000000  0.00000000
  0.30000000  0.90000000  0.16666667
  0.30000000  0.90000000  0.33333333
  0.30000000  0.90000000  0.50000000
  0.30000000  0.90000000  0.66666667
  0.30000000  0.90000000  0.83333333
  0.40000000  0.00000000  0.00000000
  0.40000000  0.00000000  0.16666667
  0.40000000  0.00000000  0.33333333
  0.40000000  0.00000000  0.50000000
  0.40000000  0.00000000  0.66666667
  0.40000000  0.00000000  0.83333333
  0.40000000  0.10000000  0.00000000
  0.40000000  0.10000000  0.16666667
  0.40000000  0.10000000  0.33333333
  0.40000000  0.10000000  0.50000000
  0.40000000  0.10000000  0.66666667
  0.40000000  0.10000000  0.83333333
  0.40000000  0.20000000  0.00000000
  0.40000000  0.20000000  0.16666667
  0.40000000  0.20000000  0.33333333
  0.40000000  0.20000000  0.50000000
  0.40000000  0.20000000  0.66666667
  0.40000000  0.20000000  0.83333333
  0.40000000  0.30000000  0.00000000
  0.40000000  0.30000000  0.16666667
  0.40000000  0.30000000  0.33333333
  0.40000000  0.30000000  0.50000000
  0.40000000  0.30000000  0.66666667
  0.40000000  0.30000000  0.83333333
  0.40000000  0.40000000  0.00000000
  0.40000000  0.40000000  0.16666667
  0.40000000  0.40000000  0.33333333
  0.40000000  0.40000000  0.50000000
  0.40000000  0.40000000  0.66666667
  0.40000000  0.40000000  0.83333333
  0.40000000  0.50000000  0.00000000
  0.40000000  0.50000000  0.16666667
  0.40000000  0.50000000  0.33333333
  0.40000000  0.50000000  0.50000000
  0.40000000  0.50000000  0.66666667
  0.40000000  0.50000000  0.83333333
  0.40000000  0.60000000  0.00000000
  0.40000000  0.60000000  0.16666667
  0.40000000  0.60000000  0.33333333
  0.40000000  0.60000000  0.50000000
  0.40000000  0.60000000  0.66666667
  0.40000000  0.60000000  0.83333333
  0.40000000  0.70000000  0.00000000
  0.40000000  0.70000000  0.16666667
  0.40000000  0.70000000  0.33333333
  0.40000000  0.70000000  0.50000000
  0.40000000  0.70000000  0.66666667
  0.40000000  0.70000000  0.83333333
  0.40000000  0.80000000  0.00000000
  0.40000000  0.80000000  0.16666667
  0.40000000  0.80000000  0.33333333
  0.40000000  0.80000000  0.50000000
  0.40000000  0.80000000  0.66666667
  0.40000000  0.80000000  0.83333333
  0.40000000  0.90000000  0.00000000
  0.40000000  0.90000000  0.16666667
  0.40000000  0.90000000  0.33333333
  0.40000000  0.90000000  0.50000000
  0.40000000  0.90000000  0.66666667
  0.40000000  0.90000000  0.83333333
  0.50000000  0.00000000  0.00000000
  0.50000000  0.00000000  0.16666667
  0.50000000  0.00000000  0.33333333
  0.50000000  0.00000000  0.50000000
  0.50000000  0.00000000  0.66666667
  0.50000000  0.00000000  0.83333333
  0.50000000  0.10000000  0.00000000
  0.50000000  0.10000000  0.16666667
  0.50000000  0.10000000  0.33333333
  0.50000000  0.10000000  0.50000000
  0.50000000  0.10000000  0.66666667
  0.50000000  0.10000000  0.83333333
  0.50000000  0.20000000  0.00000000
  0.50000000  0.20000000  0.16666667
  0.50000000  0.20000000  0.33333333
  0.50000000  0.20000000  0.50000000
  0.50000000  0.20000000  0.66666667
  0.50000000  0.20000000  0.83333333
  0.50000000  0.30000000  0.00000000
  0.50000000  0.30000000  0.16666667
  0.50000000  0.30000000  0.33333333
  0.50000000  0.30000000  0.50000000
  0.50000000  0.30000000  0.66666667
  0.50000000  0.30000000  0.83333333
  0.50000000  0.40000000  0.00000000
  0.50000000  0.40000000  0.16666667
  0.50000000  0.40000000  0.33333333
  0.50000000  0.40000000  0.50000000
  0.50000000  0.40000000  0.66666667
  0.50000000  0.40000000  0.83333333
  0.50000000  0.50000000  0.00000000
  0.50000000  0.50000000  0.16666667
  0.50000000  0.50000000  0.33333333
  0.50000000  0.50000000  0.50000000
  0.50000000  0.50000000  0.66666667
  0.50000000  0.50000000  0.83333333
  0.50000000  0.60000000  0.00000000
  0.50000000  0.60000000  0.16666667
  0.50000000  0.60000000  0.33333333
  0.50000000  0.60000000  0.50000000
  0.50000000  0.60000000  0.66666667
  0.50000000  0.60000000  0.83333333
  0.50000000  0.70000000  0.00000000
  0.50000000  0.70000000  0.16666667
  0.50000000  0.70000000  0.33333333
  0.50000000  0.70000000  0.50000000
  0.50000000  0.70000000  0.66666667
  0.50000000  0.70000000  0.83333333
  0.50000000  0.80000000  0.00000000
  0.50000000  0.80000000  0.16666667
  0.50000000  0.80000000  0.33333333
  0.50000000  0.80000000  0.50000000
  0.50000000  0.80000000  0.66666667
  0.50000000  0.80000000  0.83333333
  0.50000000  0.90000000  0.00000000
  0.50000000  0.90000000  0.16666667
  0.50000000  0.90000000  0.33333333
  0.50000000  0.90000000  0.50000000
  0.50000000  0.90000000  0.66666667
  0.50000000  0.90000000  0.83333333
  0.60000000  0.00000000  0.00000000
  0.60000000  0.00000000  0.16666667
  0.60000000  0.00000000  0.33333333
  0.60000000  0.00000000  0.50000000
  0.60000000  0.00000000  0.66666667
  0.60000000  0.00000000  0.83333333
  0.60000000  0.10000000  0.00000000
  0.60000000  0.10000000  0.16666667
  0.60000000  0.10000000  0.33333333
  0.60000000  0.10000000  0.50000000
  0.60000000  0.10000000  0.66666667
  0.60000000  0.10000000  0.83333333
  0.60000000  0.20000000  0.00000000
  0.60000000  0.20000000  0.16666667
  0.60000000  0.20000000  0.33333333
  0.60000000  0.20000000  0.50000000
  0.60000000  0.20000000  0.66666667
  0.60000000  0.20000000  0.83333333
  0.60000000  0.30000000  0.00000000
  0.60000000  0.30000000  0.16666667
  0.60000000  0.30000000  0.33333333
  0.60000000  0.30000000  0.50000000
  0.60000000  0.30000000  0.66666667
  0.60000000  0.30000000  0.83333333
  0.60000000  0.40000000  0.00000000
  0.60000000  0.40000000  0.16666667
  0.60000000  0.40000000  0.33333333
  0.60000000  0.40000000  0.50000000
  0.60000000  0.40000000  0.66666667
  0.60000000  0.40000000  0.83333333
  0.60000000  0.50000000  0.00000000
  0.60000000  0.50000000  0.16666667
  0.60000000  0.50000000  0.33333333
  0.60000000  0.50000000  0.50000000
  0.60000000  0.50000000  0.66666667
  0.60000000  0.50000000  0.83333333
  0.60000000  0.60000000  0.00000000
  0.60000000  0.60000000  0.16666667
  0.60000000  0.60000000  0.33333333
  0.60000000  0.60000000  0.50000000
  0.60000000  0.60000000  0.66666667
  0.60000000  0.60000000  0.83333333
  0.60000000  0.70000000  0.00000000
  0.60000000  0.70000000  0.16666667
  0.60000000  0.70000000  0.33333333
  0.60000000  0.70000000  0.50000000
  0.60000000  0.70000000  0.66666667
  0.60000000  0.70000000  0.83333333
  0.60000000  0.80000000  0.00000000
  0.60000000  0.80000000  0.16666667
  0.60000000  0.80000000  0.33333333
  0.60000000  0.80000000  0.50000000
  0.60000000  0.80000000  0.66666667
  0.60000000  0.80000000  0.83333333
  0.60000000  0.90000000  0.00000000
  0.60000000  0.90000000  0.16666667
  0.60000000  0.90000000  0.33333333
  0.60000000  0.90000000  0.50000000
  0.60000000  0.90000000  0.66666667
  0.60000000  0.90000000  0.83333333
  0.70000000  0.00000000  0.00000000
  0.70000000  0.00000000  0.16666667
  0.70000000  0.00000000  0.33333333
  0.70000000  0.00000000  0.50000000
  0.70000000  0.00000000  0.66666667
  0.70000000  0.00000000  0.83333333
  0.70000000  0.10000000  0.00000000
  0.70000000  0.10000000  0.16666667
  0.70000000  0.10000000  0.33333333
  0.70000000  0.10000000  0.50000000
  0.70000000  0.10000000  0.66666667
  0.70000000  0.10000000  0.83333333
  0.70000000  0.20000000  0.00000000
  0.70000000  0.20000000  0.16666667
  0.70000000  0.20000000  0.33333333
  0.70000000  0.20000000  0.50000000
  0.70000000  0.20000000  0.66666667
  0.70000000  0.20000000  0.83333333
  0.70000000  0.30000000  0.00000000
  0.70000000  0.30000000  0.16666667
  0.70000000  0.30000000  0.33333333
  0.70000000  0.30000000  0.50000000
  0.70000000  0.30000000  0.66666667
  0.70000000  0.30000000  0.83333333
  0.70000000  0.40000000  0.00000000
  0.70000000  0.40000000  0.16666667
  0.70000000  0.40000000  0.33333333
  0.70000000  0.40000000  0.50000000
  0.70000000  0.40000000  0.66666667
  0.70000000  0.40000000  0.83333333
  0.70000000  0.50000000  0.00000000
  0.70000000  0.50000000  0.16666667
  0.70000000  0.50000000  0.33333333
  0.70000000  0.50000000  0.50000000
  0.70000000  0.50000000  0.66666667
  0.70000000  0.50000000  0.83333333
  0.70000000  0.60000000  0.00000000
  0.70000000  0.60000000  0.16666667
  0.70000000  0.60000000  0.33333333
  0.70000000  0.60000000  0.50000000
  0.70000000  0.60000000  0.66666667
  0.70000000  0.60000000  0.83333333
  0.70000000  0.70000000  0.00000000
  0.70000000  0.70000000  0.16666667
  0.70000000  0.70000000  0.33333333
  0.70000000  0.70000000  0.50000000
  0.70000000  0.70000000  0.66666667
  0.70000000  0.70000000  0.83333333
  0.70000000  0.80000000  0.00000000
  0.70000000  0.80000000  0.16666667
  0.70000000  0.80000000  0.33333333
  0.70000000  0.80000000  0.50000000
  0.70000000  0.80000000  0.66666667
  0.70000000  0.80000000  0.83333333
  0.70000000  0.90000000  0.00000000
  0.70000000  0.90000000  0.16666667
  0.70000000  0.90000000  0.33333333
  0.70000000  0.90000000  0.50000000
  0.70000000  0.90000000  0.66666667
  0.70000000  0.90000000  0.83333333
  0.80000000  0.00000000  0.00000000
  0.80000000  0.00000000  0.16666667
  0.80000000  0.00000000  0.33333333
  0.80000000  0.00000000  0.50000000
  0.80000000  0.00000000  0.66666667
  0.80000000  0.00000000  0.83333333
  0.80000000  0.10000000  0.00000000
  0.80000000  0.10000000  0.16666667
  0.80000000  0.10000000  0.33333333
  0.80000000  0.10000000  0.50000000
  0.80000000  0.10000000  0.66666667
  0.80000000  0.10000000  0.83333333
  0.80000000  0.20000000  0.00000000
  0.80000000  0.20000000  0.16666667
  0.80000000  0.20000000  0.33333333
  0.80000000  0.20000000  0.50000000
  0.80000000  0.20000000  0.66666667
  0.80000000  0.20000000  0.83333333
  0.80000000  0.30000000  0.00000000
  0.80000000  0.30000000  0.16666667
  0.80000000  0.30000000  0.33333333
  0.80000000  0.30000000  0.50000000
  0.80000000  0.30000000  0.66666667
  0.80000000  0.30000000  0.83333333
  0.80000000  0.40000000  0.00000000
  0.80000000  0.40000000  0.16666667
  0.80000000  0.40000000  0.33333333
  0.80000000  0.40000000  0.50000000
  0.80000000  0.40000000  0.66666667
  0.80000000  0.40000000  0.83333333
  0.80000000  0.50000000  0.00000000
  0.80000000  0.50000000  0.16666667
  0.80000000  0.50000000  0.33333333
  0.80000000  0.50000000  0.50000000
  0.80000000  0.50000000  0.66666667
  0.80000000  0.50000000  0.83333333
  0.80000000  0.60000000  0.00000000
  0.80000000  0.60000000  0.16666667
  0.80000000  0.60000000  0.33333333
  0.80000000  0.60000000  0.50000000
  0.80000000  0.60000000  0.66666667
  0.80000000  0.60000000  0.83333333
  0.80000000  0.70000000  0.00000000
  0.80000000  0.70000000  0.16666667
  0.80000000  0.70000000  0.33333333
  0.80000000  0.70000000  0.50000000
  0.80000000  0.70000000  0.66666667
  0.80000000  0.70000000  0.83333333
  0.80000000  0.80000000  0.00000000
  0.80000000  0.80000000  0.16666667
  0.80000000  0.80000000  0.33333333
  0.80000000  0.80000000  0.50000000
  0.80000000  0.80000000  0.66666667
  0.80000000  0.80000000  0.83333333
  0.80000000  0.90000000  0.00000000
  0.80000000  0.90000000  0.16666667
  0.80000000  0.90000000  0.33333333
  0.80000000  0.90000000  0.50000000
  0.80000000  0.90000000  0.66666667
  0.80000000  0.90000000  0.83333333
  0.90000000  0.00000000  0.00000000
  0.90000000  0.00000000  0.16666667
  0.90000000  0.00000000  0.33333333
  0.90000000  0.00000000  0.50000000
  0.90000000  0.00000000  0.66666667
  0.90000000  0.00000000  0.83333333
  0.90000000  0.10000000  0.00000000
  0.90000000  0.10000000  0.16666667
  0.90000000  0.10000000  0.33333333
  0.90000000  0.10000000  0.50000000
  0.90000000  0.10000000  0.66666667
  0.90000000  0.10000000  0.83333333
  0.90000000  0.20000000  0.00000000
  0.90000000  0.20000000  0.16666667
  0.90000000  0.20000000  0.33333333
  0.90000000  0.20000000  0.50000000
  0.90000000  0.20000000  0.66666667
  0.90000000  0.20000000  0.83333333
  0.90000000  0.30000000  0.00000000
  0.90000000  0.30000000  0.16666667
  0.90000000  0.30000000  0.33333333
  0.90000000  0.30000000  0.50000000
  0.90000000  0.30000000  0.66666667
  0.90000000  0.30000000  0.83333333
  0.90000000  0.40000000  0.00000000
  0.90000000  0.40000000  0.16666667
  0.90000000  0.40000000  0.33333333
  0.90000000  0.40000000  0.50000000
  0.90000000  0.40000000  0.66666667
  0.90000000  0.40000000  0.83333333
  0.90000000  0.50000000  0.00000000
  0.90000000  0.50000000  0.16666667
  0.90000000  0.50000000  0.33333333
  0.90000000  0.50000000  0.50000000
  0.90000000  0.50000000  0.66666667
  0.90000000  0.50000000  0.83333333
  0.90000000  0.60000000  0.00000000
  0.90000000  0.60000000  0.16666667
  0.90000000  0.60000000  0.33333333
  0.90000000  0.60000000  0.50000000
  0.90000000  0.60000000  0.66666667
  0.90000000  0.60000000  0.83333333
  0.90000000  0.70000000  0.00000000
  0.90000000  0.70000000  0.16666667
  0.90000000  0.70000000  0.33333333
  0.90000000  0.70000000  0.50000000
  0.90000000  0.70000000  0.66666667
  0.90000000  0.70000000  0.83333333
  0.90000000  0.80000000  0.00000000
  0.90000000  0.80000000  0.16666667
  0.90000000  0.80000000  0.33333333
  0.90000000  0.80000000  0.50000000
  0.90000000  0.80000000  0.66666667
  0.90000000  0.80000000  0.83333333
  0.90000000  0.90000000  0.00000000
  0.90000000  0.90000000  0.16666667
  0.90000000  0.90000000  0.33333333
  0.90000000  0.90000000  0.50000000
  0.90000000  0.90000000  0.66666667
  0.90000000  0.90000000  0.83333333
end kpoints

