&CONTROL
  calculation = 'nscf',
  disk_io = 'low',
  outdir = 'out/',
  prefix = 'mp-661',
  pseudo_dir = '/usr/scratch4/magr4826/Promotion/Python/Code/devEb/pseudo/SG15',
/
&SYSTEM
  celldm(1) = 5.912174308114958,
  celldm(3) = 1.6035843588065315,
  degauss = 0.0004593661607577953,
  ecutwfc = 65,
  force_symmorphic = .FALSE.,
  ibrav = 4,
  nbnd = 32,
  nosym = .TRUE.,
  occupations = 'smearing',
  smearing = 'gaussian',
  nat = 4,
  ntyp = 2,
/
&ELECTRONS
  conv_thr = 1d-10,
  diago_full_acc = .TRUE.,
  diago_thr_init = 5d-06,
  diagonalization = 'david',
/
&IONS
/
&CELL
/
ATOMIC_SPECIES
  Al  26.9815 Al.upf
  N  14.0067 N.upf
ATOMIC_POSITIONS crystal
  Al 0.33333336 0.66666664 0.49928704
  Al 0.66666672 0.33333336 0.99928708
  N 0.33333336 0.66666664 0.88071307
  N 0.66666672 0.33333336 0.38071303
K_POINTS crystal
600
  0.00000000  0.00000000  0.00000000  1.666667e-03
  0.00000000  0.00000000  0.16666667  1.666667e-03
  0.00000000  0.00000000  0.33333333  1.666667e-03
  0.00000000  0.00000000  0.50000000  1.666667e-03
  0.00000000  0.00000000  0.66666667  1.666667e-03
  0.00000000  0.00000000  0.83333333  1.666667e-03
  0.00000000  0.10000000  0.00000000  1.666667e-03
  0.00000000  0.10000000  0.16666667  1.666667e-03
  0.00000000  0.10000000  0.33333333  1.666667e-03
  0.00000000  0.10000000  0.50000000  1.666667e-03
  0.00000000  0.10000000  0.66666667  1.666667e-03
  0.00000000  0.10000000  0.83333333  1.666667e-03
  0.00000000  0.20000000  0.00000000  1.666667e-03
  0.00000000  0.20000000  0.16666667  1.666667e-03
  0.00000000  0.20000000  0.33333333  1.666667e-03
  0.00000000  0.20000000  0.50000000  1.666667e-03
  0.00000000  0.20000000  0.66666667  1.666667e-03
  0.00000000  0.20000000  0.83333333  1.666667e-03
  0.00000000  0.30000000  0.00000000  1.666667e-03
  0.00000000  0.30000000  0.16666667  1.666667e-03
  0.00000000  0.30000000  0.33333333  1.666667e-03
  0.00000000  0.30000000  0.50000000  1.666667e-03
  0.00000000  0.30000000  0.66666667  1.666667e-03
  0.00000000  0.30000000  0.83333333  1.666667e-03
  0.00000000  0.40000000  0.00000000  1.666667e-03
  0.00000000  0.40000000  0.16666667  1.666667e-03
  0.00000000  0.40000000  0.33333333  1.666667e-03
  0.00000000  0.40000000  0.50000000  1.666667e-03
  0.00000000  0.40000000  0.66666667  1.666667e-03
  0.00000000  0.40000000  0.83333333  1.666667e-03
  0.00000000  0.50000000  0.00000000  1.666667e-03
  0.00000000  0.50000000  0.16666667  1.666667e-03
  0.00000000  0.50000000  0.33333333  1.666667e-03
  0.00000000  0.50000000  0.50000000  1.666667e-03
  0.00000000  0.50000000  0.66666667  1.666667e-03
  0.00000000  0.50000000  0.83333333  1.666667e-03
  0.00000000  0.60000000  0.00000000  1.666667e-03
  0.00000000  0.60000000  0.16666667  1.666667e-03
  0.00000000  0.60000000  0.33333333  1.666667e-03
  0.00000000  0.60000000  0.50000000  1.666667e-03
  0.00000000  0.60000000  0.66666667  1.666667e-03
  0.00000000  0.60000000  0.83333333  1.666667e-03
  0.00000000  0.70000000  0.00000000  1.666667e-03
  0.00000000  0.70000000  0.16666667  1.666667e-03
  0.00000000  0.70000000  0.33333333  1.666667e-03
  0.00000000  0.70000000  0.50000000  1.666667e-03
  0.00000000  0.70000000  0.66666667  1.666667e-03
  0.00000000  0.70000000  0.83333333  1.666667e-03
  0.00000000  0.80000000  0.00000000  1.666667e-03
  0.00000000  0.80000000  0.16666667  1.666667e-03
  0.00000000  0.80000000  0.33333333  1.666667e-03
  0.00000000  0.80000000  0.50000000  1.666667e-03
  0.00000000  0.80000000  0.66666667  1.666667e-03
  0.00000000  0.80000000  0.83333333  1.666667e-03
  0.00000000  0.90000000  0.00000000  1.666667e-03
  0.00000000  0.90000000  0.16666667  1.666667e-03
  0.00000000  0.90000000  0.33333333  1.666667e-03
  0.00000000  0.90000000  0.50000000  1.666667e-03
  0.00000000  0.90000000  0.66666667  1.666667e-03
  0.00000000  0.90000000  0.83333333  1.666667e-03
  0.10000000  0.00000000  0.00000000  1.666667e-03
  0.10000000  0.00000000  0.16666667  1.666667e-03
  0.10000000  0.00000000  0.33333333  1.666667e-03
  0.10000000  0.00000000  0.50000000  1.666667e-03
  0.10000000  0.00000000  0.66666667  1.666667e-03
  0.10000000  0.00000000  0.83333333  1.666667e-03
  0.10000000  0.10000000  0.00000000  1.666667e-03
  0.10000000  0.10000000  0.16666667  1.666667e-03
  0.10000000  0.10000000  0.33333333  1.666667e-03
  0.10000000  0.10000000  0.50000000  1.666667e-03
  0.10000000  0.10000000  0.66666667  1.666667e-03
  0.10000000  0.10000000  0.83333333  1.666667e-03
  0.10000000  0.20000000  0.00000000  1.666667e-03
  0.10000000  0.20000000  0.16666667  1.666667e-03
  0.10000000  0.20000000  0.33333333  1.666667e-03
  0.10000000  0.20000000  0.50000000  1.666667e-03
  0.10000000  0.20000000  0.66666667  1.666667e-03
  0.10000000  0.20000000  0.83333333  1.666667e-03
  0.10000000  0.30000000  0.00000000  1.666667e-03
  0.10000000  0.30000000  0.16666667  1.666667e-03
  0.10000000  0.30000000  0.33333333  1.666667e-03
  0.10000000  0.30000000  0.50000000  1.666667e-03
  0.10000000  0.30000000  0.66666667  1.666667e-03
  0.10000000  0.30000000  0.83333333  1.666667e-03
  0.10000000  0.40000000  0.00000000  1.666667e-03
  0.10000000  0.40000000  0.16666667  1.666667e-03
  0.10000000  0.40000000  0.33333333  1.666667e-03
  0.10000000  0.40000000  0.50000000  1.666667e-03
  0.10000000  0.40000000  0.66666667  1.666667e-03
  0.10000000  0.40000000  0.83333333  1.666667e-03
  0.10000000  0.50000000  0.00000000  1.666667e-03
  0.10000000  0.50000000  0.16666667  1.666667e-03
  0.10000000  0.50000000  0.33333333  1.666667e-03
  0.10000000  0.50000000  0.50000000  1.666667e-03
  0.10000000  0.50000000  0.66666667  1.666667e-03
  0.10000000  0.50000000  0.83333333  1.666667e-03
  0.10000000  0.60000000  0.00000000  1.666667e-03
  0.10000000  0.60000000  0.16666667  1.666667e-03
  0.10000000  0.60000000  0.33333333  1.666667e-03
  0.10000000  0.60000000  0.50000000  1.666667e-03
  0.10000000  0.60000000  0.66666667  1.666667e-03
  0.10000000  0.60000000  0.83333333  1.666667e-03
  0.10000000  0.70000000  0.00000000  1.666667e-03
  0.10000000  0.70000000  0.16666667  1.666667e-03
  0.10000000  0.70000000  0.33333333  1.666667e-03
  0.10000000  0.70000000  0.50000000  1.666667e-03
  0.10000000  0.70000000  0.66666667  1.666667e-03
  0.10000000  0.70000000  0.83333333  1.666667e-03
  0.10000000  0.80000000  0.00000000  1.666667e-03
  0.10000000  0.80000000  0.16666667  1.666667e-03
  0.10000000  0.80000000  0.33333333  1.666667e-03
  0.10000000  0.80000000  0.50000000  1.666667e-03
  0.10000000  0.80000000  0.66666667  1.666667e-03
  0.10000000  0.80000000  0.83333333  1.666667e-03
  0.10000000  0.90000000  0.00000000  1.666667e-03
  0.10000000  0.90000000  0.16666667  1.666667e-03
  0.10000000  0.90000000  0.33333333  1.666667e-03
  0.10000000  0.90000000  0.50000000  1.666667e-03
  0.10000000  0.90000000  0.66666667  1.666667e-03
  0.10000000  0.90000000  0.83333333  1.666667e-03
  0.20000000  0.00000000  0.00000000  1.666667e-03
  0.20000000  0.00000000  0.16666667  1.666667e-03
  0.20000000  0.00000000  0.33333333  1.666667e-03
  0.20000000  0.00000000  0.50000000  1.666667e-03
  0.20000000  0.00000000  0.66666667  1.666667e-03
  0.20000000  0.00000000  0.83333333  1.666667e-03
  0.20000000  0.10000000  0.00000000  1.666667e-03
  0.20000000  0.10000000  0.16666667  1.666667e-03
  0.20000000  0.10000000  0.33333333  1.666667e-03
  0.20000000  0.10000000  0.50000000  1.666667e-03
  0.20000000  0.10000000  0.66666667  1.666667e-03
  0.20000000  0.10000000  0.83333333  1.666667e-03
  0.20000000  0.20000000  0.00000000  1.666667e-03
  0.20000000  0.20000000  0.16666667  1.666667e-03
  0.20000000  0.20000000  0.33333333  1.666667e-03
  0.20000000  0.20000000  0.50000000  1.666667e-03
  0.20000000  0.20000000  0.66666667  1.666667e-03
  0.20000000  0.20000000  0.83333333  1.666667e-03
  0.20000000  0.30000000  0.00000000  1.666667e-03
  0.20000000  0.30000000  0.16666667  1.666667e-03
  0.20000000  0.30000000  0.33333333  1.666667e-03
  0.20000000  0.30000000  0.50000000  1.666667e-03
  0.20000000  0.30000000  0.66666667  1.666667e-03
  0.20000000  0.30000000  0.83333333  1.666667e-03
  0.20000000  0.40000000  0.00000000  1.666667e-03
  0.20000000  0.40000000  0.16666667  1.666667e-03
  0.20000000  0.40000000  0.33333333  1.666667e-03
  0.20000000  0.40000000  0.50000000  1.666667e-03
  0.20000000  0.40000000  0.66666667  1.666667e-03
  0.20000000  0.40000000  0.83333333  1.666667e-03
  0.20000000  0.50000000  0.00000000  1.666667e-03
  0.20000000  0.50000000  0.16666667  1.666667e-03
  0.20000000  0.50000000  0.33333333  1.666667e-03
  0.20000000  0.50000000  0.50000000  1.666667e-03
  0.20000000  0.50000000  0.66666667  1.666667e-03
  0.20000000  0.50000000  0.83333333  1.666667e-03
  0.20000000  0.60000000  0.00000000  1.666667e-03
  0.20000000  0.60000000  0.16666667  1.666667e-03
  0.20000000  0.60000000  0.33333333  1.666667e-03
  0.20000000  0.60000000  0.50000000  1.666667e-03
  0.20000000  0.60000000  0.66666667  1.666667e-03
  0.20000000  0.60000000  0.83333333  1.666667e-03
  0.20000000  0.70000000  0.00000000  1.666667e-03
  0.20000000  0.70000000  0.16666667  1.666667e-03
  0.20000000  0.70000000  0.33333333  1.666667e-03
  0.20000000  0.70000000  0.50000000  1.666667e-03
  0.20000000  0.70000000  0.66666667  1.666667e-03
  0.20000000  0.70000000  0.83333333  1.666667e-03
  0.20000000  0.80000000  0.00000000  1.666667e-03
  0.20000000  0.80000000  0.16666667  1.666667e-03
  0.20000000  0.80000000  0.33333333  1.666667e-03
  0.20000000  0.80000000  0.50000000  1.666667e-03
  0.20000000  0.80000000  0.66666667  1.666667e-03
  0.20000000  0.80000000  0.83333333  1.666667e-03
  0.20000000  0.90000000  0.00000000  1.666667e-03
  0.20000000  0.90000000  0.16666667  1.666667e-03
  0.20000000  0.90000000  0.33333333  1.666667e-03
  0.20000000  0.90000000  0.50000000  1.666667e-03
  0.20000000  0.90000000  0.66666667  1.666667e-03
  0.20000000  0.90000000  0.83333333  1.666667e-03
  0.30000000  0.00000000  0.00000000  1.666667e-03
  0.30000000  0.00000000  0.16666667  1.666667e-03
  0.30000000  0.00000000  0.33333333  1.666667e-03
  0.30000000  0.00000000  0.50000000  1.666667e-03
  0.30000000  0.00000000  0.66666667  1.666667e-03
  0.30000000  0.00000000  0.83333333  1.666667e-03
  0.30000000  0.10000000  0.00000000  1.666667e-03
  0.30000000  0.10000000  0.16666667  1.666667e-03
  0.30000000  0.10000000  0.33333333  1.666667e-03
  0.30000000  0.10000000  0.50000000  1.666667e-03
  0.30000000  0.10000000  0.66666667  1.666667e-03
  0.30000000  0.10000000  0.83333333  1.666667e-03
  0.30000000  0.20000000  0.00000000  1.666667e-03
  0.30000000  0.20000000  0.16666667  1.666667e-03
  0.30000000  0.20000000  0.33333333  1.666667e-03
  0.30000000  0.20000000  0.50000000  1.666667e-03
  0.30000000  0.20000000  0.66666667  1.666667e-03
  0.30000000  0.20000000  0.83333333  1.666667e-03
  0.30000000  0.30000000  0.00000000  1.666667e-03
  0.30000000  0.30000000  0.16666667  1.666667e-03
  0.30000000  0.30000000  0.33333333  1.666667e-03
  0.30000000  0.30000000  0.50000000  1.666667e-03
  0.30000000  0.30000000  0.66666667  1.666667e-03
  0.30000000  0.30000000  0.83333333  1.666667e-03
  0.30000000  0.40000000  0.00000000  1.666667e-03
  0.30000000  0.40000000  0.16666667  1.666667e-03
  0.30000000  0.40000000  0.33333333  1.666667e-03
  0.30000000  0.40000000  0.50000000  1.666667e-03
  0.30000000  0.40000000  0.66666667  1.666667e-03
  0.30000000  0.40000000  0.83333333  1.666667e-03
  0.30000000  0.50000000  0.00000000  1.666667e-03
  0.30000000  0.50000000  0.16666667  1.666667e-03
  0.30000000  0.50000000  0.33333333  1.666667e-03
  0.30000000  0.50000000  0.50000000  1.666667e-03
  0.30000000  0.50000000  0.66666667  1.666667e-03
  0.30000000  0.50000000  0.83333333  1.666667e-03
  0.30000000  0.60000000  0.00000000  1.666667e-03
  0.30000000  0.60000000  0.16666667  1.666667e-03
  0.30000000  0.60000000  0.33333333  1.666667e-03
  0.30000000  0.60000000  0.50000000  1.666667e-03
  0.30000000  0.60000000  0.66666667  1.666667e-03
  0.30000000  0.60000000  0.83333333  1.666667e-03
  0.30000000  0.70000000  0.00000000  1.666667e-03
  0.30000000  0.70000000  0.16666667  1.666667e-03
  0.30000000  0.70000000  0.33333333  1.666667e-03
  0.30000000  0.70000000  0.50000000  1.666667e-03
  0.30000000  0.70000000  0.66666667  1.666667e-03
  0.30000000  0.70000000  0.83333333  1.666667e-03
  0.30000000  0.80000000  0.00000000  1.666667e-03
  0.30000000  0.80000000  0.16666667  1.666667e-03
  0.30000000  0.80000000  0.33333333  1.666667e-03
  0.30000000  0.80000000  0.50000000  1.666667e-03
  0.30000000  0.80000000  0.66666667  1.666667e-03
  0.30000000  0.80000000  0.83333333  1.666667e-03
  0.30000000  0.90000000  0.00000000  1.666667e-03
  0.30000000  0.90000000  0.16666667  1.666667e-03
  0.30000000  0.90000000  0.33333333  1.666667e-03
  0.30000000  0.90000000  0.50000000  1.666667e-03
  0.30000000  0.90000000  0.66666667  1.666667e-03
  0.30000000  0.90000000  0.83333333  1.666667e-03
  0.40000000  0.00000000  0.00000000  1.666667e-03
  0.40000000  0.00000000  0.16666667  1.666667e-03
  0.40000000  0.00000000  0.33333333  1.666667e-03
  0.40000000  0.00000000  0.50000000  1.666667e-03
  0.40000000  0.00000000  0.66666667  1.666667e-03
  0.40000000  0.00000000  0.83333333  1.666667e-03
  0.40000000  0.10000000  0.00000000  1.666667e-03
  0.40000000  0.10000000  0.16666667  1.666667e-03
  0.40000000  0.10000000  0.33333333  1.666667e-03
  0.40000000  0.10000000  0.50000000  1.666667e-03
  0.40000000  0.10000000  0.66666667  1.666667e-03
  0.40000000  0.10000000  0.83333333  1.666667e-03
  0.40000000  0.20000000  0.00000000  1.666667e-03
  0.40000000  0.20000000  0.16666667  1.666667e-03
  0.40000000  0.20000000  0.33333333  1.666667e-03
  0.40000000  0.20000000  0.50000000  1.666667e-03
  0.40000000  0.20000000  0.66666667  1.666667e-03
  0.40000000  0.20000000  0.83333333  1.666667e-03
  0.40000000  0.30000000  0.00000000  1.666667e-03
  0.40000000  0.30000000  0.16666667  1.666667e-03
  0.40000000  0.30000000  0.33333333  1.666667e-03
  0.40000000  0.30000000  0.50000000  1.666667e-03
  0.40000000  0.30000000  0.66666667  1.666667e-03
  0.40000000  0.30000000  0.83333333  1.666667e-03
  0.40000000  0.40000000  0.00000000  1.666667e-03
  0.40000000  0.40000000  0.16666667  1.666667e-03
  0.40000000  0.40000000  0.33333333  1.666667e-03
  0.40000000  0.40000000  0.50000000  1.666667e-03
  0.40000000  0.40000000  0.66666667  1.666667e-03
  0.40000000  0.40000000  0.83333333  1.666667e-03
  0.40000000  0.50000000  0.00000000  1.666667e-03
  0.40000000  0.50000000  0.16666667  1.666667e-03
  0.40000000  0.50000000  0.33333333  1.666667e-03
  0.40000000  0.50000000  0.50000000  1.666667e-03
  0.40000000  0.50000000  0.66666667  1.666667e-03
  0.40000000  0.50000000  0.83333333  1.666667e-03
  0.40000000  0.60000000  0.00000000  1.666667e-03
  0.40000000  0.60000000  0.16666667  1.666667e-03
  0.40000000  0.60000000  0.33333333  1.666667e-03
  0.40000000  0.60000000  0.50000000  1.666667e-03
  0.40000000  0.60000000  0.66666667  1.666667e-03
  0.40000000  0.60000000  0.83333333  1.666667e-03
  0.40000000  0.70000000  0.00000000  1.666667e-03
  0.40000000  0.70000000  0.16666667  1.666667e-03
  0.40000000  0.70000000  0.33333333  1.666667e-03
  0.40000000  0.70000000  0.50000000  1.666667e-03
  0.40000000  0.70000000  0.66666667  1.666667e-03
  0.40000000  0.70000000  0.83333333  1.666667e-03
  0.40000000  0.80000000  0.00000000  1.666667e-03
  0.40000000  0.80000000  0.16666667  1.666667e-03
  0.40000000  0.80000000  0.33333333  1.666667e-03
  0.40000000  0.80000000  0.50000000  1.666667e-03
  0.40000000  0.80000000  0.66666667  1.666667e-03
  0.40000000  0.80000000  0.83333333  1.666667e-03
  0.40000000  0.90000000  0.00000000  1.666667e-03
  0.40000000  0.90000000  0.16666667  1.666667e-03
  0.40000000  0.90000000  0.33333333  1.666667e-03
  0.40000000  0.90000000  0.50000000  1.666667e-03
  0.40000000  0.90000000  0.66666667  1.666667e-03
  0.40000000  0.90000000  0.83333333  1.666667e-03
  0.50000000  0.00000000  0.00000000  1.666667e-03
  0.50000000  0.00000000  0.16666667  1.666667e-03
  0.50000000  0.00000000  0.33333333  1.666667e-03
  0.50000000  0.00000000  0.50000000  1.666667e-03
  0.50000000  0.00000000  0.66666667  1.666667e-03
  0.50000000  0.00000000  0.83333333  1.666667e-03
  0.50000000  0.10000000  0.00000000  1.666667e-03
  0.50000000  0.10000000  0.16666667  1.666667e-03
  0.50000000  0.10000000  0.33333333  1.666667e-03
  0.50000000  0.10000000  0.50000000  1.666667e-03
  0.50000000  0.10000000  0.66666667  1.666667e-03
  0.50000000  0.10000000  0.83333333  1.666667e-03
  0.50000000  0.20000000  0.00000000  1.666667e-03
  0.50000000  0.20000000  0.16666667  1.666667e-03
  0.50000000  0.20000000  0.33333333  1.666667e-03
  0.50000000  0.20000000  0.50000000  1.666667e-03
  0.50000000  0.20000000  0.66666667  1.666667e-03
  0.50000000  0.20000000  0.83333333  1.666667e-03
  0.50000000  0.30000000  0.00000000  1.666667e-03
  0.50000000  0.30000000  0.16666667  1.666667e-03
  0.50000000  0.30000000  0.33333333  1.666667e-03
  0.50000000  0.30000000  0.50000000  1.666667e-03
  0.50000000  0.30000000  0.66666667  1.666667e-03
  0.50000000  0.30000000  0.83333333  1.666667e-03
  0.50000000  0.40000000  0.00000000  1.666667e-03
  0.50000000  0.40000000  0.16666667  1.666667e-03
  0.50000000  0.40000000  0.33333333  1.666667e-03
  0.50000000  0.40000000  0.50000000  1.666667e-03
  0.50000000  0.40000000  0.66666667  1.666667e-03
  0.50000000  0.40000000  0.83333333  1.666667e-03
  0.50000000  0.50000000  0.00000000  1.666667e-03
  0.50000000  0.50000000  0.16666667  1.666667e-03
  0.50000000  0.50000000  0.33333333  1.666667e-03
  0.50000000  0.50000000  0.50000000  1.666667e-03
  0.50000000  0.50000000  0.66666667  1.666667e-03
  0.50000000  0.50000000  0.83333333  1.666667e-03
  0.50000000  0.60000000  0.00000000  1.666667e-03
  0.50000000  0.60000000  0.16666667  1.666667e-03
  0.50000000  0.60000000  0.33333333  1.666667e-03
  0.50000000  0.60000000  0.50000000  1.666667e-03
  0.50000000  0.60000000  0.66666667  1.666667e-03
  0.50000000  0.60000000  0.83333333  1.666667e-03
  0.50000000  0.70000000  0.00000000  1.666667e-03
  0.50000000  0.70000000  0.16666667  1.666667e-03
  0.50000000  0.70000000  0.33333333  1.666667e-03
  0.50000000  0.70000000  0.50000000  1.666667e-03
  0.50000000  0.70000000  0.66666667  1.666667e-03
  0.50000000  0.70000000  0.83333333  1.666667e-03
  0.50000000  0.80000000  0.00000000  1.666667e-03
  0.50000000  0.80000000  0.16666667  1.666667e-03
  0.50000000  0.80000000  0.33333333  1.666667e-03
  0.50000000  0.80000000  0.50000000  1.666667e-03
  0.50000000  0.80000000  0.66666667  1.666667e-03
  0.50000000  0.80000000  0.83333333  1.666667e-03
  0.50000000  0.90000000  0.00000000  1.666667e-03
  0.50000000  0.90000000  0.16666667  1.666667e-03
  0.50000000  0.90000000  0.33333333  1.666667e-03
  0.50000000  0.90000000  0.50000000  1.666667e-03
  0.50000000  0.90000000  0.66666667  1.666667e-03
  0.50000000  0.90000000  0.83333333  1.666667e-03
  0.60000000  0.00000000  0.00000000  1.666667e-03
  0.60000000  0.00000000  0.16666667  1.666667e-03
  0.60000000  0.00000000  0.33333333  1.666667e-03
  0.60000000  0.00000000  0.50000000  1.666667e-03
  0.60000000  0.00000000  0.66666667  1.666667e-03
  0.60000000  0.00000000  0.83333333  1.666667e-03
  0.60000000  0.10000000  0.00000000  1.666667e-03
  0.60000000  0.10000000  0.16666667  1.666667e-03
  0.60000000  0.10000000  0.33333333  1.666667e-03
  0.60000000  0.10000000  0.50000000  1.666667e-03
  0.60000000  0.10000000  0.66666667  1.666667e-03
  0.60000000  0.10000000  0.83333333  1.666667e-03
  0.60000000  0.20000000  0.00000000  1.666667e-03
  0.60000000  0.20000000  0.16666667  1.666667e-03
  0.60000000  0.20000000  0.33333333  1.666667e-03
  0.60000000  0.20000000  0.50000000  1.666667e-03
  0.60000000  0.20000000  0.66666667  1.666667e-03
  0.60000000  0.20000000  0.83333333  1.666667e-03
  0.60000000  0.30000000  0.00000000  1.666667e-03
  0.60000000  0.30000000  0.16666667  1.666667e-03
  0.60000000  0.30000000  0.33333333  1.666667e-03
  0.60000000  0.30000000  0.50000000  1.666667e-03
  0.60000000  0.30000000  0.66666667  1.666667e-03
  0.60000000  0.30000000  0.83333333  1.666667e-03
  0.60000000  0.40000000  0.00000000  1.666667e-03
  0.60000000  0.40000000  0.16666667  1.666667e-03
  0.60000000  0.40000000  0.33333333  1.666667e-03
  0.60000000  0.40000000  0.50000000  1.666667e-03
  0.60000000  0.40000000  0.66666667  1.666667e-03
  0.60000000  0.40000000  0.83333333  1.666667e-03
  0.60000000  0.50000000  0.00000000  1.666667e-03
  0.60000000  0.50000000  0.16666667  1.666667e-03
  0.60000000  0.50000000  0.33333333  1.666667e-03
  0.60000000  0.50000000  0.50000000  1.666667e-03
  0.60000000  0.50000000  0.66666667  1.666667e-03
  0.60000000  0.50000000  0.83333333  1.666667e-03
  0.60000000  0.60000000  0.00000000  1.666667e-03
  0.60000000  0.60000000  0.16666667  1.666667e-03
  0.60000000  0.60000000  0.33333333  1.666667e-03
  0.60000000  0.60000000  0.50000000  1.666667e-03
  0.60000000  0.60000000  0.66666667  1.666667e-03
  0.60000000  0.60000000  0.83333333  1.666667e-03
  0.60000000  0.70000000  0.00000000  1.666667e-03
  0.60000000  0.70000000  0.16666667  1.666667e-03
  0.60000000  0.70000000  0.33333333  1.666667e-03
  0.60000000  0.70000000  0.50000000  1.666667e-03
  0.60000000  0.70000000  0.66666667  1.666667e-03
  0.60000000  0.70000000  0.83333333  1.666667e-03
  0.60000000  0.80000000  0.00000000  1.666667e-03
  0.60000000  0.80000000  0.16666667  1.666667e-03
  0.60000000  0.80000000  0.33333333  1.666667e-03
  0.60000000  0.80000000  0.50000000  1.666667e-03
  0.60000000  0.80000000  0.66666667  1.666667e-03
  0.60000000  0.80000000  0.83333333  1.666667e-03
  0.60000000  0.90000000  0.00000000  1.666667e-03
  0.60000000  0.90000000  0.16666667  1.666667e-03
  0.60000000  0.90000000  0.33333333  1.666667e-03
  0.60000000  0.90000000  0.50000000  1.666667e-03
  0.60000000  0.90000000  0.66666667  1.666667e-03
  0.60000000  0.90000000  0.83333333  1.666667e-03
  0.70000000  0.00000000  0.00000000  1.666667e-03
  0.70000000  0.00000000  0.16666667  1.666667e-03
  0.70000000  0.00000000  0.33333333  1.666667e-03
  0.70000000  0.00000000  0.50000000  1.666667e-03
  0.70000000  0.00000000  0.66666667  1.666667e-03
  0.70000000  0.00000000  0.83333333  1.666667e-03
  0.70000000  0.10000000  0.00000000  1.666667e-03
  0.70000000  0.10000000  0.16666667  1.666667e-03
  0.70000000  0.10000000  0.33333333  1.666667e-03
  0.70000000  0.10000000  0.50000000  1.666667e-03
  0.70000000  0.10000000  0.66666667  1.666667e-03
  0.70000000  0.10000000  0.83333333  1.666667e-03
  0.70000000  0.20000000  0.00000000  1.666667e-03
  0.70000000  0.20000000  0.16666667  1.666667e-03
  0.70000000  0.20000000  0.33333333  1.666667e-03
  0.70000000  0.20000000  0.50000000  1.666667e-03
  0.70000000  0.20000000  0.66666667  1.666667e-03
  0.70000000  0.20000000  0.83333333  1.666667e-03
  0.70000000  0.30000000  0.00000000  1.666667e-03
  0.70000000  0.30000000  0.16666667  1.666667e-03
  0.70000000  0.30000000  0.33333333  1.666667e-03
  0.70000000  0.30000000  0.50000000  1.666667e-03
  0.70000000  0.30000000  0.66666667  1.666667e-03
  0.70000000  0.30000000  0.83333333  1.666667e-03
  0.70000000  0.40000000  0.00000000  1.666667e-03
  0.70000000  0.40000000  0.16666667  1.666667e-03
  0.70000000  0.40000000  0.33333333  1.666667e-03
  0.70000000  0.40000000  0.50000000  1.666667e-03
  0.70000000  0.40000000  0.66666667  1.666667e-03
  0.70000000  0.40000000  0.83333333  1.666667e-03
  0.70000000  0.50000000  0.00000000  1.666667e-03
  0.70000000  0.50000000  0.16666667  1.666667e-03
  0.70000000  0.50000000  0.33333333  1.666667e-03
  0.70000000  0.50000000  0.50000000  1.666667e-03
  0.70000000  0.50000000  0.66666667  1.666667e-03
  0.70000000  0.50000000  0.83333333  1.666667e-03
  0.70000000  0.60000000  0.00000000  1.666667e-03
  0.70000000  0.60000000  0.16666667  1.666667e-03
  0.70000000  0.60000000  0.33333333  1.666667e-03
  0.70000000  0.60000000  0.50000000  1.666667e-03
  0.70000000  0.60000000  0.66666667  1.666667e-03
  0.70000000  0.60000000  0.83333333  1.666667e-03
  0.70000000  0.70000000  0.00000000  1.666667e-03
  0.70000000  0.70000000  0.16666667  1.666667e-03
  0.70000000  0.70000000  0.33333333  1.666667e-03
  0.70000000  0.70000000  0.50000000  1.666667e-03
  0.70000000  0.70000000  0.66666667  1.666667e-03
  0.70000000  0.70000000  0.83333333  1.666667e-03
  0.70000000  0.80000000  0.00000000  1.666667e-03
  0.70000000  0.80000000  0.16666667  1.666667e-03
  0.70000000  0.80000000  0.33333333  1.666667e-03
  0.70000000  0.80000000  0.50000000  1.666667e-03
  0.70000000  0.80000000  0.66666667  1.666667e-03
  0.70000000  0.80000000  0.83333333  1.666667e-03
  0.70000000  0.90000000  0.00000000  1.666667e-03
  0.70000000  0.90000000  0.16666667  1.666667e-03
  0.70000000  0.90000000  0.33333333  1.666667e-03
  0.70000000  0.90000000  0.50000000  1.666667e-03
  0.70000000  0.90000000  0.66666667  1.666667e-03
  0.70000000  0.90000000  0.83333333  1.666667e-03
  0.80000000  0.00000000  0.00000000  1.666667e-03
  0.80000000  0.00000000  0.16666667  1.666667e-03
  0.80000000  0.00000000  0.33333333  1.666667e-03
  0.80000000  0.00000000  0.50000000  1.666667e-03
  0.80000000  0.00000000  0.66666667  1.666667e-03
  0.80000000  0.00000000  0.83333333  1.666667e-03
  0.80000000  0.10000000  0.00000000  1.666667e-03
  0.80000000  0.10000000  0.16666667  1.666667e-03
  0.80000000  0.10000000  0.33333333  1.666667e-03
  0.80000000  0.10000000  0.50000000  1.666667e-03
  0.80000000  0.10000000  0.66666667  1.666667e-03
  0.80000000  0.10000000  0.83333333  1.666667e-03
  0.80000000  0.20000000  0.00000000  1.666667e-03
  0.80000000  0.20000000  0.16666667  1.666667e-03
  0.80000000  0.20000000  0.33333333  1.666667e-03
  0.80000000  0.20000000  0.50000000  1.666667e-03
  0.80000000  0.20000000  0.66666667  1.666667e-03
  0.80000000  0.20000000  0.83333333  1.666667e-03
  0.80000000  0.30000000  0.00000000  1.666667e-03
  0.80000000  0.30000000  0.16666667  1.666667e-03
  0.80000000  0.30000000  0.33333333  1.666667e-03
  0.80000000  0.30000000  0.50000000  1.666667e-03
  0.80000000  0.30000000  0.66666667  1.666667e-03
  0.80000000  0.30000000  0.83333333  1.666667e-03
  0.80000000  0.40000000  0.00000000  1.666667e-03
  0.80000000  0.40000000  0.16666667  1.666667e-03
  0.80000000  0.40000000  0.33333333  1.666667e-03
  0.80000000  0.40000000  0.50000000  1.666667e-03
  0.80000000  0.40000000  0.66666667  1.666667e-03
  0.80000000  0.40000000  0.83333333  1.666667e-03
  0.80000000  0.50000000  0.00000000  1.666667e-03
  0.80000000  0.50000000  0.16666667  1.666667e-03
  0.80000000  0.50000000  0.33333333  1.666667e-03
  0.80000000  0.50000000  0.50000000  1.666667e-03
  0.80000000  0.50000000  0.66666667  1.666667e-03
  0.80000000  0.50000000  0.83333333  1.666667e-03
  0.80000000  0.60000000  0.00000000  1.666667e-03
  0.80000000  0.60000000  0.16666667  1.666667e-03
  0.80000000  0.60000000  0.33333333  1.666667e-03
  0.80000000  0.60000000  0.50000000  1.666667e-03
  0.80000000  0.60000000  0.66666667  1.666667e-03
  0.80000000  0.60000000  0.83333333  1.666667e-03
  0.80000000  0.70000000  0.00000000  1.666667e-03
  0.80000000  0.70000000  0.16666667  1.666667e-03
  0.80000000  0.70000000  0.33333333  1.666667e-03
  0.80000000  0.70000000  0.50000000  1.666667e-03
  0.80000000  0.70000000  0.66666667  1.666667e-03
  0.80000000  0.70000000  0.83333333  1.666667e-03
  0.80000000  0.80000000  0.00000000  1.666667e-03
  0.80000000  0.80000000  0.16666667  1.666667e-03
  0.80000000  0.80000000  0.33333333  1.666667e-03
  0.80000000  0.80000000  0.50000000  1.666667e-03
  0.80000000  0.80000000  0.66666667  1.666667e-03
  0.80000000  0.80000000  0.83333333  1.666667e-03
  0.80000000  0.90000000  0.00000000  1.666667e-03
  0.80000000  0.90000000  0.16666667  1.666667e-03
  0.80000000  0.90000000  0.33333333  1.666667e-03
  0.80000000  0.90000000  0.50000000  1.666667e-03
  0.80000000  0.90000000  0.66666667  1.666667e-03
  0.80000000  0.90000000  0.83333333  1.666667e-03
  0.90000000  0.00000000  0.00000000  1.666667e-03
  0.90000000  0.00000000  0.16666667  1.666667e-03
  0.90000000  0.00000000  0.33333333  1.666667e-03
  0.90000000  0.00000000  0.50000000  1.666667e-03
  0.90000000  0.00000000  0.66666667  1.666667e-03
  0.90000000  0.00000000  0.83333333  1.666667e-03
  0.90000000  0.10000000  0.00000000  1.666667e-03
  0.90000000  0.10000000  0.16666667  1.666667e-03
  0.90000000  0.10000000  0.33333333  1.666667e-03
  0.90000000  0.10000000  0.50000000  1.666667e-03
  0.90000000  0.10000000  0.66666667  1.666667e-03
  0.90000000  0.10000000  0.83333333  1.666667e-03
  0.90000000  0.20000000  0.00000000  1.666667e-03
  0.90000000  0.20000000  0.16666667  1.666667e-03
  0.90000000  0.20000000  0.33333333  1.666667e-03
  0.90000000  0.20000000  0.50000000  1.666667e-03
  0.90000000  0.20000000  0.66666667  1.666667e-03
  0.90000000  0.20000000  0.83333333  1.666667e-03
  0.90000000  0.30000000  0.00000000  1.666667e-03
  0.90000000  0.30000000  0.16666667  1.666667e-03
  0.90000000  0.30000000  0.33333333  1.666667e-03
  0.90000000  0.30000000  0.50000000  1.666667e-03
  0.90000000  0.30000000  0.66666667  1.666667e-03
  0.90000000  0.30000000  0.83333333  1.666667e-03
  0.90000000  0.40000000  0.00000000  1.666667e-03
  0.90000000  0.40000000  0.16666667  1.666667e-03
  0.90000000  0.40000000  0.33333333  1.666667e-03
  0.90000000  0.40000000  0.50000000  1.666667e-03
  0.90000000  0.40000000  0.66666667  1.666667e-03
  0.90000000  0.40000000  0.83333333  1.666667e-03
  0.90000000  0.50000000  0.00000000  1.666667e-03