Sr1 O1
1.0
  -2.5837844903259191    0.0000000000000000    2.5837844903259191
   0.0000000000000000    2.5837844903259191    2.5837844903259191
  -2.5837844903259191    2.5837844903259191    0.0000000000000000
Sr O
1 1
direct
   0.4999999615946624    0.5000000384053376    0.4999999615946624 Sr
   0.0000000000000000    0.0000000000000000    0.0000000000000000 O
