&inputpp
    prefix = 'mp-2160'
    outdir='out/',
    plot_num=10,
    emin = 8.195032696663962,
    emax = 9.195032696663962,
    delta_e = 0.1,
/
&plot
    iflag=3,
    output_format=6,
    fileout='ldos.cube',
/
