&CONTROL
  calculation = 'nscf',
  disk_io = 'low',
  outdir = 'out/',
  prefix = 'mp-2160',
  pseudo_dir = '/usr/scratch4/magr4985/MG/devEb/pseudo/SG15',
/
&SYSTEM
  celldm(1) = 7.561846012015532,
  celldm(2) = 2.9272680835346967,
  celldm(3) = 3.089315884194843,
  degauss = 0.0004593661607577953,
  ecutwfc = 130,
  force_symmorphic = .FALSE.,
  ibrav = 8,
  nbnd = 192,
  nosym = .FALSE.,
  occupations = 'smearing',
  smearing = 'gaussian',
  nat = 20,
  ntyp = 2,
/
&ELECTRONS
  conv_thr = 1d-10,
  diago_full_acc = .TRUE.,
  diago_thr_init = 5d-06,
  diagonalization = 'david',
/
&IONS
/
&CELL
/
ATOMIC_SPECIES
  Sb  121.7600 Sb.upf
  Se  78.9600 Se.upf
ATOMIC_POSITIONS crystal
  Sb 0.75000006 0.03809460 0.14032238
  Sb 0.25000002 0.96190547 0.85967770
  Sb 0.25000002 0.53809464 0.35967766
  Sb 0.75000006 0.46190544 0.64032242
  Sb 0.25000002 0.32959141 0.03381284
  Sb 0.75000006 0.67040867 0.96618723
  Sb 0.75000006 0.82959144 0.46618720
  Sb 0.25000002 0.17040863 0.53381288
  Se 0.75000006 0.12752537 0.94834527
  Se 0.25000002 0.87247471 0.05165480
  Se 0.25000002 0.62752541 0.55165484
  Se 0.75000006 0.37247467 0.44834523
  Se 0.25000002 0.19210068 0.20533134
  Se 0.75000006 0.80789939 0.79466874
  Se 0.75000006 0.69210072 0.29466870
  Se 0.25000002 0.30789935 0.70533137
  Se 0.75000006 0.05409869 0.62734920
  Se 0.25000002 0.94590138 0.37265088
  Se 0.25000002 0.55409873 0.87265092
  Se 0.75000006 0.44590134 0.12734916
K_POINTS automatic
  12 4 4 0 0 0

