&inputpp
    prefix = 'mp-23251'
    outdir='out/',
    plot_num=10,
    emin = 5.547003371969832,
    emax = 6.547003371969832,
    delta_e = 0.1,
/
&plot
    iflag=3,
    output_format=6,
    fileout='ldos.cube',
/
