num_wann = 12
exclude_bands = 1-14 27-52
num_iter = 500

auto_projections =.true.

begin atoms_frac
Sn 0.5000000384053376 0.5000000384053376 0.5000000384053376
Sn 0.0 0.0 0.0
O 0.8059723569072762 0.194027719903399 0.5000000384053376
O 0.19402771990339898 0.8059723569072762 0.5000000384053376
O 0.30597231850193857 0.30597231850193873 5.566377757197919e-17
O 0.6940277583087366 0.6940277583087366 1.2626046354919548e-16
end atoms_frac

geninterp = true
geninterp_alsofirstder = true

begin unit_cell_cart
4.764818 0.000000 0.000000
0.000000 4.764818 0.000000
0.000000 0.000000 3.207500
end unit_cell_cart

mp_grid : 6 6 10

begin kpoints
  0.00000000  0.00000000  0.00000000
  0.00000000  0.00000000  0.10000000
  0.00000000  0.00000000  0.20000000
  0.00000000  0.00000000  0.30000000
  0.00000000  0.00000000  0.40000000
  0.00000000  0.00000000  0.50000000
  0.00000000  0.00000000  0.60000000
  0.00000000  0.00000000  0.70000000
  0.00000000  0.00000000  0.80000000
  0.00000000  0.00000000  0.90000000
  0.00000000  0.16666667  0.00000000
  0.00000000  0.16666667  0.10000000
  0.00000000  0.16666667  0.20000000
  0.00000000  0.16666667  0.30000000
  0.00000000  0.16666667  0.40000000
  0.00000000  0.16666667  0.50000000
  0.00000000  0.16666667  0.60000000
  0.00000000  0.16666667  0.70000000
  0.00000000  0.16666667  0.80000000
  0.00000000  0.16666667  0.90000000
  0.00000000  0.33333333  0.00000000
  0.00000000  0.33333333  0.10000000
  0.00000000  0.33333333  0.20000000
  0.00000000  0.33333333  0.30000000
  0.00000000  0.33333333  0.40000000
  0.00000000  0.33333333  0.50000000
  0.00000000  0.33333333  0.60000000
  0.00000000  0.33333333  0.70000000
  0.00000000  0.33333333  0.80000000
  0.00000000  0.33333333  0.90000000
  0.00000000  0.50000000  0.00000000
  0.00000000  0.50000000  0.10000000
  0.00000000  0.50000000  0.20000000
  0.00000000  0.50000000  0.30000000
  0.00000000  0.50000000  0.40000000
  0.00000000  0.50000000  0.50000000
  0.00000000  0.50000000  0.60000000
  0.00000000  0.50000000  0.70000000
  0.00000000  0.50000000  0.80000000
  0.00000000  0.50000000  0.90000000
  0.00000000  0.66666667  0.00000000
  0.00000000  0.66666667  0.10000000
  0.00000000  0.66666667  0.20000000
  0.00000000  0.66666667  0.30000000
  0.00000000  0.66666667  0.40000000
  0.00000000  0.66666667  0.50000000
  0.00000000  0.66666667  0.60000000
  0.00000000  0.66666667  0.70000000
  0.00000000  0.66666667  0.80000000
  0.00000000  0.66666667  0.90000000
  0.00000000  0.83333333  0.00000000
  0.00000000  0.83333333  0.10000000
  0.00000000  0.83333333  0.20000000
  0.00000000  0.83333333  0.30000000
  0.00000000  0.83333333  0.40000000
  0.00000000  0.83333333  0.50000000
  0.00000000  0.83333333  0.60000000
  0.00000000  0.83333333  0.70000000
  0.00000000  0.83333333  0.80000000
  0.00000000  0.83333333  0.90000000
  0.16666667  0.00000000  0.00000000
  0.16666667  0.00000000  0.10000000
  0.16666667  0.00000000  0.20000000
  0.16666667  0.00000000  0.30000000
  0.16666667  0.00000000  0.40000000
  0.16666667  0.00000000  0.50000000
  0.16666667  0.00000000  0.60000000
  0.16666667  0.00000000  0.70000000
  0.16666667  0.00000000  0.80000000
  0.16666667  0.00000000  0.90000000
  0.16666667  0.16666667  0.00000000
  0.16666667  0.16666667  0.10000000
  0.16666667  0.16666667  0.20000000
  0.16666667  0.16666667  0.30000000
  0.16666667  0.16666667  0.40000000
  0.16666667  0.16666667  0.50000000
  0.16666667  0.16666667  0.60000000
  0.16666667  0.16666667  0.70000000
  0.16666667  0.16666667  0.80000000
  0.16666667  0.16666667  0.90000000
  0.16666667  0.33333333  0.00000000
  0.16666667  0.33333333  0.10000000
  0.16666667  0.33333333  0.20000000
  0.16666667  0.33333333  0.30000000
  0.16666667  0.33333333  0.40000000
  0.16666667  0.33333333  0.50000000
  0.16666667  0.33333333  0.60000000
  0.16666667  0.33333333  0.70000000
  0.16666667  0.33333333  0.80000000
  0.16666667  0.33333333  0.90000000
  0.16666667  0.50000000  0.00000000
  0.16666667  0.50000000  0.10000000
  0.16666667  0.50000000  0.20000000
  0.16666667  0.50000000  0.30000000
  0.16666667  0.50000000  0.40000000
  0.16666667  0.50000000  0.50000000
  0.16666667  0.50000000  0.60000000
  0.16666667  0.50000000  0.70000000
  0.16666667  0.50000000  0.80000000
  0.16666667  0.50000000  0.90000000
  0.16666667  0.66666667  0.00000000
  0.16666667  0.66666667  0.10000000
  0.16666667  0.66666667  0.20000000
  0.16666667  0.66666667  0.30000000
  0.16666667  0.66666667  0.40000000
  0.16666667  0.66666667  0.50000000
  0.16666667  0.66666667  0.60000000
  0.16666667  0.66666667  0.70000000
  0.16666667  0.66666667  0.80000000
  0.16666667  0.66666667  0.90000000
  0.16666667  0.83333333  0.00000000
  0.16666667  0.83333333  0.10000000
  0.16666667  0.83333333  0.20000000
  0.16666667  0.83333333  0.30000000
  0.16666667  0.83333333  0.40000000
  0.16666667  0.83333333  0.50000000
  0.16666667  0.83333333  0.60000000
  0.16666667  0.83333333  0.70000000
  0.16666667  0.83333333  0.80000000
  0.16666667  0.83333333  0.90000000
  0.33333333  0.00000000  0.00000000
  0.33333333  0.00000000  0.10000000
  0.33333333  0.00000000  0.20000000
  0.33333333  0.00000000  0.30000000
  0.33333333  0.00000000  0.40000000
  0.33333333  0.00000000  0.50000000
  0.33333333  0.00000000  0.60000000
  0.33333333  0.00000000  0.70000000
  0.33333333  0.00000000  0.80000000
  0.33333333  0.00000000  0.90000000
  0.33333333  0.16666667  0.00000000
  0.33333333  0.16666667  0.10000000
  0.33333333  0.16666667  0.20000000
  0.33333333  0.16666667  0.30000000
  0.33333333  0.16666667  0.40000000
  0.33333333  0.16666667  0.50000000
  0.33333333  0.16666667  0.60000000
  0.33333333  0.16666667  0.70000000
  0.33333333  0.16666667  0.80000000
  0.33333333  0.16666667  0.90000000
  0.33333333  0.33333333  0.00000000
  0.33333333  0.33333333  0.10000000
  0.33333333  0.33333333  0.20000000
  0.33333333  0.33333333  0.30000000
  0.33333333  0.33333333  0.40000000
  0.33333333  0.33333333  0.50000000
  0.33333333  0.33333333  0.60000000
  0.33333333  0.33333333  0.70000000
  0.33333333  0.33333333  0.80000000
  0.33333333  0.33333333  0.90000000
  0.33333333  0.50000000  0.00000000
  0.33333333  0.50000000  0.10000000
  0.33333333  0.50000000  0.20000000
  0.33333333  0.50000000  0.30000000
  0.33333333  0.50000000  0.40000000
  0.33333333  0.50000000  0.50000000
  0.33333333  0.50000000  0.60000000
  0.33333333  0.50000000  0.70000000
  0.33333333  0.50000000  0.80000000
  0.33333333  0.50000000  0.90000000
  0.33333333  0.66666667  0.00000000
  0.33333333  0.66666667  0.10000000
  0.33333333  0.66666667  0.20000000
  0.33333333  0.66666667  0.30000000
  0.33333333  0.66666667  0.40000000
  0.33333333  0.66666667  0.50000000
  0.33333333  0.66666667  0.60000000
  0.33333333  0.66666667  0.70000000
  0.33333333  0.66666667  0.80000000
  0.33333333  0.66666667  0.90000000
  0.33333333  0.83333333  0.00000000
  0.33333333  0.83333333  0.10000000
  0.33333333  0.83333333  0.20000000
  0.33333333  0.83333333  0.30000000
  0.33333333  0.83333333  0.40000000
  0.33333333  0.83333333  0.50000000
  0.33333333  0.83333333  0.60000000
  0.33333333  0.83333333  0.70000000
  0.33333333  0.83333333  0.80000000
  0.33333333  0.83333333  0.90000000
  0.50000000  0.00000000  0.00000000
  0.50000000  0.00000000  0.10000000
  0.50000000  0.00000000  0.20000000
  0.50000000  0.00000000  0.30000000
  0.50000000  0.00000000  0.40000000
  0.50000000  0.00000000  0.50000000
  0.50000000  0.00000000  0.60000000
  0.50000000  0.00000000  0.70000000
  0.50000000  0.00000000  0.80000000
  0.50000000  0.00000000  0.90000000
  0.50000000  0.16666667  0.00000000
  0.50000000  0.16666667  0.10000000
  0.50000000  0.16666667  0.20000000
  0.50000000  0.16666667  0.30000000
  0.50000000  0.16666667  0.40000000
  0.50000000  0.16666667  0.50000000
  0.50000000  0.16666667  0.60000000
  0.50000000  0.16666667  0.70000000
  0.50000000  0.16666667  0.80000000
  0.50000000  0.16666667  0.90000000
  0.50000000  0.33333333  0.00000000
  0.50000000  0.33333333  0.10000000
  0.50000000  0.33333333  0.20000000
  0.50000000  0.33333333  0.30000000
  0.50000000  0.33333333  0.40000000
  0.50000000  0.33333333  0.50000000
  0.50000000  0.33333333  0.60000000
  0.50000000  0.33333333  0.70000000
  0.50000000  0.33333333  0.80000000
  0.50000000  0.33333333  0.90000000
  0.50000000  0.50000000  0.00000000
  0.50000000  0.50000000  0.10000000
  0.50000000  0.50000000  0.20000000
  0.50000000  0.50000000  0.30000000
  0.50000000  0.50000000  0.40000000
  0.50000000  0.50000000  0.50000000
  0.50000000  0.50000000  0.60000000
  0.50000000  0.50000000  0.70000000
  0.50000000  0.50000000  0.80000000
  0.50000000  0.50000000  0.90000000
  0.50000000  0.66666667  0.00000000
  0.50000000  0.66666667  0.10000000
  0.50000000  0.66666667  0.20000000
  0.50000000  0.66666667  0.30000000
  0.50000000  0.66666667  0.40000000
  0.50000000  0.66666667  0.50000000
  0.50000000  0.66666667  0.60000000
  0.50000000  0.66666667  0.70000000
  0.50000000  0.66666667  0.80000000
  0.50000000  0.66666667  0.90000000
  0.50000000  0.83333333  0.00000000
  0.50000000  0.83333333  0.10000000
  0.50000000  0.83333333  0.20000000
  0.50000000  0.83333333  0.30000000
  0.50000000  0.83333333  0.40000000
  0.50000000  0.83333333  0.50000000
  0.50000000  0.83333333  0.60000000
  0.50000000  0.83333333  0.70000000
  0.50000000  0.83333333  0.80000000
  0.50000000  0.83333333  0.90000000
  0.66666667  0.00000000  0.00000000
  0.66666667  0.00000000  0.10000000
  0.66666667  0.00000000  0.20000000
  0.66666667  0.00000000  0.30000000
  0.66666667  0.00000000  0.40000000
  0.66666667  0.00000000  0.50000000
  0.66666667  0.00000000  0.60000000
  0.66666667  0.00000000  0.70000000
  0.66666667  0.00000000  0.80000000
  0.66666667  0.00000000  0.90000000
  0.66666667  0.16666667  0.00000000
  0.66666667  0.16666667  0.10000000
  0.66666667  0.16666667  0.20000000
  0.66666667  0.16666667  0.30000000
  0.66666667  0.16666667  0.40000000
  0.66666667  0.16666667  0.50000000
  0.66666667  0.16666667  0.60000000
  0.66666667  0.16666667  0.70000000
  0.66666667  0.16666667  0.80000000
  0.66666667  0.16666667  0.90000000
  0.66666667  0.33333333  0.00000000
  0.66666667  0.33333333  0.10000000
  0.66666667  0.33333333  0.20000000
  0.66666667  0.33333333  0.30000000
  0.66666667  0.33333333  0.40000000
  0.66666667  0.33333333  0.50000000
  0.66666667  0.33333333  0.60000000
  0.66666667  0.33333333  0.70000000
  0.66666667  0.33333333  0.80000000
  0.66666667  0.33333333  0.90000000
  0.66666667  0.50000000  0.00000000
  0.66666667  0.50000000  0.10000000
  0.66666667  0.50000000  0.20000000
  0.66666667  0.50000000  0.30000000
  0.66666667  0.50000000  0.40000000
  0.66666667  0.50000000  0.50000000
  0.66666667  0.50000000  0.60000000
  0.66666667  0.50000000  0.70000000
  0.66666667  0.50000000  0.80000000
  0.66666667  0.50000000  0.90000000
  0.66666667  0.66666667  0.00000000
  0.66666667  0.66666667  0.10000000
  0.66666667  0.66666667  0.20000000
  0.66666667  0.66666667  0.30000000
  0.66666667  0.66666667  0.40000000
  0.66666667  0.66666667  0.50000000
  0.66666667  0.66666667  0.60000000
  0.66666667  0.66666667  0.70000000
  0.66666667  0.66666667  0.80000000
  0.66666667  0.66666667  0.90000000
  0.66666667  0.83333333  0.00000000
  0.66666667  0.83333333  0.10000000
  0.66666667  0.83333333  0.20000000
  0.66666667  0.83333333  0.30000000
  0.66666667  0.83333333  0.40000000
  0.66666667  0.83333333  0.50000000
  0.66666667  0.83333333  0.60000000
  0.66666667  0.83333333  0.70000000
  0.66666667  0.83333333  0.80000000
  0.66666667  0.83333333  0.90000000
  0.83333333  0.00000000  0.00000000
  0.83333333  0.00000000  0.10000000
  0.83333333  0.00000000  0.20000000
  0.83333333  0.00000000  0.30000000
  0.83333333  0.00000000  0.40000000
  0.83333333  0.00000000  0.50000000
  0.83333333  0.00000000  0.60000000
  0.83333333  0.00000000  0.70000000
  0.83333333  0.00000000  0.80000000
  0.83333333  0.00000000  0.90000000
  0.83333333  0.16666667  0.00000000
  0.83333333  0.16666667  0.10000000
  0.83333333  0.16666667  0.20000000
  0.83333333  0.16666667  0.30000000
  0.83333333  0.16666667  0.40000000
  0.83333333  0.16666667  0.50000000
  0.83333333  0.16666667  0.60000000
  0.83333333  0.16666667  0.70000000
  0.83333333  0.16666667  0.80000000
  0.83333333  0.16666667  0.90000000
  0.83333333  0.33333333  0.00000000
  0.83333333  0.33333333  0.10000000
  0.83333333  0.33333333  0.20000000
  0.83333333  0.33333333  0.30000000
  0.83333333  0.33333333  0.40000000
  0.83333333  0.33333333  0.50000000
  0.83333333  0.33333333  0.60000000
  0.83333333  0.33333333  0.70000000
  0.83333333  0.33333333  0.80000000
  0.83333333  0.33333333  0.90000000
  0.83333333  0.50000000  0.00000000
  0.83333333  0.50000000  0.10000000
  0.83333333  0.50000000  0.20000000
  0.83333333  0.50000000  0.30000000
  0.83333333  0.50000000  0.40000000
  0.83333333  0.50000000  0.50000000
  0.83333333  0.50000000  0.60000000
  0.83333333  0.50000000  0.70000000
  0.83333333  0.50000000  0.80000000
  0.83333333  0.50000000  0.90000000
  0.83333333  0.66666667  0.00000000
  0.83333333  0.66666667  0.10000000
  0.83333333  0.66666667  0.20000000
  0.83333333  0.66666667  0.30000000
  0.83333333  0.66666667  0.40000000
  0.83333333  0.66666667  0.50000000
  0.83333333  0.66666667  0.60000000
  0.83333333  0.66666667  0.70000000
  0.83333333  0.66666667  0.80000000
  0.83333333  0.66666667  0.90000000
  0.83333333  0.83333333  0.00000000
  0.83333333  0.83333333  0.10000000
  0.83333333  0.83333333  0.20000000
  0.83333333  0.83333333  0.30000000
  0.83333333  0.83333333  0.40000000
  0.83333333  0.83333333  0.50000000
  0.83333333  0.83333333  0.60000000
  0.83333333  0.83333333  0.70000000
  0.83333333  0.83333333  0.80000000
  0.83333333  0.83333333  0.90000000
end kpoints

