&CONTROL
  calculation = 'nscf',
  disk_io = 'low',
  outdir = 'out/',
  prefix = 'mp-856',
  pseudo_dir = '/usr/scratch4/magr4826/Promotion/Python/Code/devEb/pseudo/SG15',
/
&SYSTEM
  celldm(1) = 9.004200490486317,
  celldm(3) = 0.6731631176065193,
  degauss = 0.0004593661607577953,
  ecutwfc = 75,
  force_symmorphic = .FALSE.,
  ibrav = 6,
  nbnd = 52,
  nosym = .TRUE.,
  occupations = 'smearing',
  smearing = 'gaussian',
  nat = 6,
  ntyp = 2,
/
&ELECTRONS
  conv_thr = 1d-10,
  diago_full_acc = .TRUE.,
  diago_thr_init = 5d-06,
  diagonalization = 'david',
/
&IONS
/
&CELL
/
ATOMIC_SPECIES
  O  15.9994 O.upf
  Sn  118.7100 Sn.upf
ATOMIC_POSITIONS crystal
  Sn 0.50000004 0.50000004 0.50000004
  Sn 0.00000000 0.00000000 0.00000000
  O 0.80597236 0.19402772 0.50000004
  O 0.19402772 0.80597236 0.50000004
  O 0.30597232 0.30597232 0.00000000
  O 0.69402776 0.69402776 0.00000000
K_POINTS crystal
360
  0.00000000  0.00000000  0.00000000  2.777778e-03
  0.00000000  0.00000000  0.10000000  2.777778e-03
  0.00000000  0.00000000  0.20000000  2.777778e-03
  0.00000000  0.00000000  0.30000000  2.777778e-03
  0.00000000  0.00000000  0.40000000  2.777778e-03
  0.00000000  0.00000000  0.50000000  2.777778e-03
  0.00000000  0.00000000  0.60000000  2.777778e-03
  0.00000000  0.00000000  0.70000000  2.777778e-03
  0.00000000  0.00000000  0.80000000  2.777778e-03
  0.00000000  0.00000000  0.90000000  2.777778e-03
  0.00000000  0.16666667  0.00000000  2.777778e-03
  0.00000000  0.16666667  0.10000000  2.777778e-03
  0.00000000  0.16666667  0.20000000  2.777778e-03
  0.00000000  0.16666667  0.30000000  2.777778e-03
  0.00000000  0.16666667  0.40000000  2.777778e-03
  0.00000000  0.16666667  0.50000000  2.777778e-03
  0.00000000  0.16666667  0.60000000  2.777778e-03
  0.00000000  0.16666667  0.70000000  2.777778e-03
  0.00000000  0.16666667  0.80000000  2.777778e-03
  0.00000000  0.16666667  0.90000000  2.777778e-03
  0.00000000  0.33333333  0.00000000  2.777778e-03
  0.00000000  0.33333333  0.10000000  2.777778e-03
  0.00000000  0.33333333  0.20000000  2.777778e-03
  0.00000000  0.33333333  0.30000000  2.777778e-03
  0.00000000  0.33333333  0.40000000  2.777778e-03
  0.00000000  0.33333333  0.50000000  2.777778e-03
  0.00000000  0.33333333  0.60000000  2.777778e-03
  0.00000000  0.33333333  0.70000000  2.777778e-03
  0.00000000  0.33333333  0.80000000  2.777778e-03
  0.00000000  0.33333333  0.90000000  2.777778e-03
  0.00000000  0.50000000  0.00000000  2.777778e-03
  0.00000000  0.50000000  0.10000000  2.777778e-03
  0.00000000  0.50000000  0.20000000  2.777778e-03
  0.00000000  0.50000000  0.30000000  2.777778e-03
  0.00000000  0.50000000  0.40000000  2.777778e-03
  0.00000000  0.50000000  0.50000000  2.777778e-03
  0.00000000  0.50000000  0.60000000  2.777778e-03
  0.00000000  0.50000000  0.70000000  2.777778e-03
  0.00000000  0.50000000  0.80000000  2.777778e-03
  0.00000000  0.50000000  0.90000000  2.777778e-03
  0.00000000  0.66666667  0.00000000  2.777778e-03
  0.00000000  0.66666667  0.10000000  2.777778e-03
  0.00000000  0.66666667  0.20000000  2.777778e-03
  0.00000000  0.66666667  0.30000000  2.777778e-03
  0.00000000  0.66666667  0.40000000  2.777778e-03
  0.00000000  0.66666667  0.50000000  2.777778e-03
  0.00000000  0.66666667  0.60000000  2.777778e-03
  0.00000000  0.66666667  0.70000000  2.777778e-03
  0.00000000  0.66666667  0.80000000  2.777778e-03
  0.00000000  0.66666667  0.90000000  2.777778e-03
  0.00000000  0.83333333  0.00000000  2.777778e-03
  0.00000000  0.83333333  0.10000000  2.777778e-03
  0.00000000  0.83333333  0.20000000  2.777778e-03
  0.00000000  0.83333333  0.30000000  2.777778e-03
  0.00000000  0.83333333  0.40000000  2.777778e-03
  0.00000000  0.83333333  0.50000000  2.777778e-03
  0.00000000  0.83333333  0.60000000  2.777778e-03
  0.00000000  0.83333333  0.70000000  2.777778e-03
  0.00000000  0.83333333  0.80000000  2.777778e-03
  0.00000000  0.83333333  0.90000000  2.777778e-03
  0.16666667  0.00000000  0.00000000  2.777778e-03
  0.16666667  0.00000000  0.10000000  2.777778e-03
  0.16666667  0.00000000  0.20000000  2.777778e-03
  0.16666667  0.00000000  0.30000000  2.777778e-03
  0.16666667  0.00000000  0.40000000  2.777778e-03
  0.16666667  0.00000000  0.50000000  2.777778e-03
  0.16666667  0.00000000  0.60000000  2.777778e-03
  0.16666667  0.00000000  0.70000000  2.777778e-03
  0.16666667  0.00000000  0.80000000  2.777778e-03
  0.16666667  0.00000000  0.90000000  2.777778e-03
  0.16666667  0.16666667  0.00000000  2.777778e-03
  0.16666667  0.16666667  0.10000000  2.777778e-03
  0.16666667  0.16666667  0.20000000  2.777778e-03
  0.16666667  0.16666667  0.30000000  2.777778e-03
  0.16666667  0.16666667  0.40000000  2.777778e-03
  0.16666667  0.16666667  0.50000000  2.777778e-03
  0.16666667  0.16666667  0.60000000  2.777778e-03
  0.16666667  0.16666667  0.70000000  2.777778e-03
  0.16666667  0.16666667  0.80000000  2.777778e-03
  0.16666667  0.16666667  0.90000000  2.777778e-03
  0.16666667  0.33333333  0.00000000  2.777778e-03
  0.16666667  0.33333333  0.10000000  2.777778e-03
  0.16666667  0.33333333  0.20000000  2.777778e-03
  0.16666667  0.33333333  0.30000000  2.777778e-03
  0.16666667  0.33333333  0.40000000  2.777778e-03
  0.16666667  0.33333333  0.50000000  2.777778e-03
  0.16666667  0.33333333  0.60000000  2.777778e-03
  0.16666667  0.33333333  0.70000000  2.777778e-03
  0.16666667  0.33333333  0.80000000  2.777778e-03
  0.16666667  0.33333333  0.90000000  2.777778e-03
  0.16666667  0.50000000  0.00000000  2.777778e-03
  0.16666667  0.50000000  0.10000000  2.777778e-03
  0.16666667  0.50000000  0.20000000  2.777778e-03
  0.16666667  0.50000000  0.30000000  2.777778e-03
  0.16666667  0.50000000  0.40000000  2.777778e-03
  0.16666667  0.50000000  0.50000000  2.777778e-03
  0.16666667  0.50000000  0.60000000  2.777778e-03
  0.16666667  0.50000000  0.70000000  2.777778e-03
  0.16666667  0.50000000  0.80000000  2.777778e-03
  0.16666667  0.50000000  0.90000000  2.777778e-03
  0.16666667  0.66666667  0.00000000  2.777778e-03
  0.16666667  0.66666667  0.10000000  2.777778e-03
  0.16666667  0.66666667  0.20000000  2.777778e-03
  0.16666667  0.66666667  0.30000000  2.777778e-03
  0.16666667  0.66666667  0.40000000  2.777778e-03
  0.16666667  0.66666667  0.50000000  2.777778e-03
  0.16666667  0.66666667  0.60000000  2.777778e-03
  0.16666667  0.66666667  0.70000000  2.777778e-03
  0.16666667  0.66666667  0.80000000  2.777778e-03
  0.16666667  0.66666667  0.90000000  2.777778e-03
  0.16666667  0.83333333  0.00000000  2.777778e-03
  0.16666667  0.83333333  0.10000000  2.777778e-03
  0.16666667  0.83333333  0.20000000  2.777778e-03
  0.16666667  0.83333333  0.30000000  2.777778e-03
  0.16666667  0.83333333  0.40000000  2.777778e-03
  0.16666667  0.83333333  0.50000000  2.777778e-03
  0.16666667  0.83333333  0.60000000  2.777778e-03
  0.16666667  0.83333333  0.70000000  2.777778e-03
  0.16666667  0.83333333  0.80000000  2.777778e-03
  0.16666667  0.83333333  0.90000000  2.777778e-03
  0.33333333  0.00000000  0.00000000  2.777778e-03
  0.33333333  0.00000000  0.10000000  2.777778e-03
  0.33333333  0.00000000  0.20000000  2.777778e-03
  0.33333333  0.00000000  0.30000000  2.777778e-03
  0.33333333  0.00000000  0.40000000  2.777778e-03
  0.33333333  0.00000000  0.50000000  2.777778e-03
  0.33333333  0.00000000  0.60000000  2.777778e-03
  0.33333333  0.00000000  0.70000000  2.777778e-03
  0.33333333  0.00000000  0.80000000  2.777778e-03
  0.33333333  0.00000000  0.90000000  2.777778e-03
  0.33333333  0.16666667  0.00000000  2.777778e-03
  0.33333333  0.16666667  0.10000000  2.777778e-03
  0.33333333  0.16666667  0.20000000  2.777778e-03
  0.33333333  0.16666667  0.30000000  2.777778e-03
  0.33333333  0.16666667  0.40000000  2.777778e-03
  0.33333333  0.16666667  0.50000000  2.777778e-03
  0.33333333  0.16666667  0.60000000  2.777778e-03
  0.33333333  0.16666667  0.70000000  2.777778e-03
  0.33333333  0.16666667  0.80000000  2.777778e-03
  0.33333333  0.16666667  0.90000000  2.777778e-03
  0.33333333  0.33333333  0.00000000  2.777778e-03
  0.33333333  0.33333333  0.10000000  2.777778e-03
  0.33333333  0.33333333  0.20000000  2.777778e-03
  0.33333333  0.33333333  0.30000000  2.777778e-03
  0.33333333  0.33333333  0.40000000  2.777778e-03
  0.33333333  0.33333333  0.50000000  2.777778e-03
  0.33333333  0.33333333  0.60000000  2.777778e-03
  0.33333333  0.33333333  0.70000000  2.777778e-03
  0.33333333  0.33333333  0.80000000  2.777778e-03
  0.33333333  0.33333333  0.90000000  2.777778e-03
  0.33333333  0.50000000  0.00000000  2.777778e-03
  0.33333333  0.50000000  0.10000000  2.777778e-03
  0.33333333  0.50000000  0.20000000  2.777778e-03
  0.33333333  0.50000000  0.30000000  2.777778e-03
  0.33333333  0.50000000  0.40000000  2.777778e-03
  0.33333333  0.50000000  0.50000000  2.777778e-03
  0.33333333  0.50000000  0.60000000  2.777778e-03
  0.33333333  0.50000000  0.70000000  2.777778e-03
  0.33333333  0.50000000  0.80000000  2.777778e-03
  0.33333333  0.50000000  0.90000000  2.777778e-03
  0.33333333  0.66666667  0.00000000  2.777778e-03
  0.33333333  0.66666667  0.10000000  2.777778e-03
  0.33333333  0.66666667  0.20000000  2.777778e-03
  0.33333333  0.66666667  0.30000000  2.777778e-03
  0.33333333  0.66666667  0.40000000  2.777778e-03
  0.33333333  0.66666667  0.50000000  2.777778e-03
  0.33333333  0.66666667  0.60000000  2.777778e-03
  0.33333333  0.66666667  0.70000000  2.777778e-03
  0.33333333  0.66666667  0.80000000  2.777778e-03
  0.33333333  0.66666667  0.90000000  2.777778e-03
  0.33333333  0.83333333  0.00000000  2.777778e-03
  0.33333333  0.83333333  0.10000000  2.777778e-03
  0.33333333  0.83333333  0.20000000  2.777778e-03
  0.33333333  0.83333333  0.30000000  2.777778e-03
  0.33333333  0.83333333  0.40000000  2.777778e-03
  0.33333333  0.83333333  0.50000000  2.777778e-03
  0.33333333  0.83333333  0.60000000  2.777778e-03
  0.33333333  0.83333333  0.70000000  2.777778e-03
  0.33333333  0.83333333  0.80000000  2.777778e-03
  0.33333333  0.83333333  0.90000000  2.777778e-03
  0.50000000  0.00000000  0.00000000  2.777778e-03
  0.50000000  0.00000000  0.10000000  2.777778e-03
  0.50000000  0.00000000  0.20000000  2.777778e-03
  0.50000000  0.00000000  0.30000000  2.777778e-03
  0.50000000  0.00000000  0.40000000  2.777778e-03
  0.50000000  0.00000000  0.50000000  2.777778e-03
  0.50000000  0.00000000  0.60000000  2.777778e-03
  0.50000000  0.00000000  0.70000000  2.777778e-03
  0.50000000  0.00000000  0.80000000  2.777778e-03
  0.50000000  0.00000000  0.90000000  2.777778e-03
  0.50000000  0.16666667  0.00000000  2.777778e-03
  0.50000000  0.16666667  0.10000000  2.777778e-03
  0.50000000  0.16666667  0.20000000  2.777778e-03
  0.50000000  0.16666667  0.30000000  2.777778e-03
  0.50000000  0.16666667  0.40000000  2.777778e-03
  0.50000000  0.16666667  0.50000000  2.777778e-03
  0.50000000  0.16666667  0.60000000  2.777778e-03
  0.50000000  0.16666667  0.70000000  2.777778e-03
  0.50000000  0.16666667  0.80000000  2.777778e-03
  0.50000000  0.16666667  0.90000000  2.777778e-03
  0.50000000  0.33333333  0.00000000  2.777778e-03
  0.50000000  0.33333333  0.10000000  2.777778e-03
  0.50000000  0.33333333  0.20000000  2.777778e-03
  0.50000000  0.33333333  0.30000000  2.777778e-03
  0.50000000  0.33333333  0.40000000  2.777778e-03
  0.50000000  0.33333333  0.50000000  2.777778e-03
  0.50000000  0.33333333  0.60000000  2.777778e-03
  0.50000000  0.33333333  0.70000000  2.777778e-03
  0.50000000  0.33333333  0.80000000  2.777778e-03
  0.50000000  0.33333333  0.90000000  2.777778e-03
  0.50000000  0.50000000  0.00000000  2.777778e-03
  0.50000000  0.50000000  0.10000000  2.777778e-03
  0.50000000  0.50000000  0.20000000  2.777778e-03
  0.50000000  0.50000000  0.30000000  2.777778e-03
  0.50000000  0.50000000  0.40000000  2.777778e-03
  0.50000000  0.50000000  0.50000000  2.777778e-03
  0.50000000  0.50000000  0.60000000  2.777778e-03
  0.50000000  0.50000000  0.70000000  2.777778e-03
  0.50000000  0.50000000  0.80000000  2.777778e-03
  0.50000000  0.50000000  0.90000000  2.777778e-03
  0.50000000  0.66666667  0.00000000  2.777778e-03
  0.50000000  0.66666667  0.10000000  2.777778e-03
  0.50000000  0.66666667  0.20000000  2.777778e-03
  0.50000000  0.66666667  0.30000000  2.777778e-03
  0.50000000  0.66666667  0.40000000  2.777778e-03
  0.50000000  0.66666667  0.50000000  2.777778e-03
  0.50000000  0.66666667  0.60000000  2.777778e-03
  0.50000000  0.66666667  0.70000000  2.777778e-03
  0.50000000  0.66666667  0.80000000  2.777778e-03
  0.50000000  0.66666667  0.90000000  2.777778e-03
  0.50000000  0.83333333  0.00000000  2.777778e-03
  0.50000000  0.83333333  0.10000000  2.777778e-03
  0.50000000  0.83333333  0.20000000  2.777778e-03
  0.50000000  0.83333333  0.30000000  2.777778e-03
  0.50000000  0.83333333  0.40000000  2.777778e-03
  0.50000000  0.83333333  0.50000000  2.777778e-03
  0.50000000  0.83333333  0.60000000  2.777778e-03
  0.50000000  0.83333333  0.70000000  2.777778e-03
  0.50000000  0.83333333  0.80000000  2.777778e-03
  0.50000000  0.83333333  0.90000000  2.777778e-03
  0.66666667  0.00000000  0.00000000  2.777778e-03
  0.66666667  0.00000000  0.10000000  2.777778e-03
  0.66666667  0.00000000  0.20000000  2.777778e-03
  0.66666667  0.00000000  0.30000000  2.777778e-03
  0.66666667  0.00000000  0.40000000  2.777778e-03
  0.66666667  0.00000000  0.50000000  2.777778e-03
  0.66666667  0.00000000  0.60000000  2.777778e-03
  0.66666667  0.00000000  0.70000000  2.777778e-03
  0.66666667  0.00000000  0.80000000  2.777778e-03
  0.66666667  0.00000000  0.90000000  2.777778e-03
  0.66666667  0.16666667  0.00000000  2.777778e-03
  0.66666667  0.16666667  0.10000000  2.777778e-03
  0.66666667  0.16666667  0.20000000  2.777778e-03
  0.66666667  0.16666667  0.30000000  2.777778e-03
  0.66666667  0.16666667  0.40000000  2.777778e-03
  0.66666667  0.16666667  0.50000000  2.777778e-03
  0.66666667  0.16666667  0.60000000  2.777778e-03
  0.66666667  0.16666667  0.70000000  2.777778e-03
  0.66666667  0.16666667  0.80000000  2.777778e-03
  0.66666667  0.16666667  0.90000000  2.777778e-03
  0.66666667  0.33333333  0.00000000  2.777778e-03
  0.66666667  0.33333333  0.10000000  2.777778e-03
  0.66666667  0.33333333  0.20000000  2.777778e-03
  0.66666667  0.33333333  0.30000000  2.777778e-03
  0.66666667  0.33333333  0.40000000  2.777778e-03
  0.66666667  0.33333333  0.50000000  2.777778e-03
  0.66666667  0.33333333  0.60000000  2.777778e-03
  0.66666667  0.33333333  0.70000000  2.777778e-03
  0.66666667  0.33333333  0.80000000  2.777778e-03
  0.66666667  0.33333333  0.90000000  2.777778e-03
  0.66666667  0.50000000  0.00000000  2.777778e-03
  0.66666667  0.50000000  0.10000000  2.777778e-03
  0.66666667  0.50000000  0.20000000  2.777778e-03
  0.66666667  0.50000000  0.30000000  2.777778e-03
  0.66666667  0.50000000  0.40000000  2.777778e-03
  0.66666667  0.50000000  0.50000000  2.777778e-03
  0.66666667  0.50000000  0.60000000  2.777778e-03
  0.66666667  0.50000000  0.70000000  2.777778e-03
  0.66666667  0.50000000  0.80000000  2.777778e-03
  0.66666667  0.50000000  0.90000000  2.777778e-03
  0.66666667  0.66666667  0.00000000  2.777778e-03
  0.66666667  0.66666667  0.10000000  2.777778e-03
  0.66666667  0.66666667  0.20000000  2.777778e-03
  0.66666667  0.66666667  0.30000000  2.777778e-03
  0.66666667  0.66666667  0.40000000  2.777778e-03
  0.66666667  0.66666667  0.50000000  2.777778e-03
  0.66666667  0.66666667  0.60000000  2.777778e-03
  0.66666667  0.66666667  0.70000000  2.777778e-03
  0.66666667  0.66666667  0.80000000  2.777778e-03
  0.66666667  0.66666667  0.90000000  2.777778e-03
  0.66666667  0.83333333  0.00000000  2.777778e-03
  0.66666667  0.83333333  0.10000000  2.777778e-03
  0.66666667  0.83333333  0.20000000  2.777778e-03
  0.66666667  0.83333333  0.30000000  2.777778e-03
  0.66666667  0.83333333  0.40000000  2.777778e-03
  0.66666667  0.83333333  0.50000000  2.777778e-03
  0.66666667  0.83333333  0.60000000  2.777778e-03
  0.66666667  0.83333333  0.70000000  2.777778e-03
  0.66666667  0.83333333  0.80000000  2.777778e-03
  0.66666667  0.83333333  0.90000000  2.777778e-03
  0.83333333  0.00000000  0.00000000  2.777778e-03
  0.83333333  0.00000000  0.10000000  2.777778e-03
  0.83333333  0.00000000  0.20000000  2.777778e-03
  0.83333333  0.00000000  0.30000000  2.777778e-03
  0.83333333  0.00000000  0.40000000  2.777778e-03
  0.83333333  0.00000000  0.50000000  2.777778e-03
  0.83333333  0.00000000  0.60000000  2.777778e-03
  0.83333333  0.00000000  0.70000000  2.777778e-03
  0.83333333  0.00000000  0.80000000  2.777778e-03
  0.83333333  0.00000000  0.90000000  2.777778e-03
  0.83333333  0.16666667  0.00000000  2.777778e-03
  0.83333333  0.16666667  0.10000000  2.777778e-03
  0.83333333  0.16666667  0.20000000  2.777778e-03
  0.83333333  0.16666667  0.30000000  2.777778e-03
  0.83333333  0.16666667  0.40000000  2.777778e-03
  0.83333333  0.16666667  0.50000000  2.777778e-03
  0.83333333  0.16666667  0.60000000  2.777778e-03
  0.83333333  0.16666667  0.70000000  2.777778e-03
  0.83333333  0.16666667  0.80000000  2.777778e-03
  0.83333333  0.16666667  0.90000000  2.777778e-03
  0.83333333  0.33333333  0.00000000  2.777778e-03
  0.83333333  0.33333333  0.10000000  2.777778e-03
  0.83333333  0.33333333  0.20000000  2.777778e-03
  0.83333333  0.33333333  0.30000000  2.777778e-03
  0.83333333  0.33333333  0.40000000  2.777778e-03
  0.83333333  0.33333333  0.50000000  2.777778e-03
  0.83333333  0.33333333  0.60000000  2.777778e-03
  0.83333333  0.33333333  0.70000000  2.777778e-03
  0.83333333  0.33333333  0.80000000  2.777778e-03
  0.83333333  0.33333333  0.90000000  2.777778e-03
  0.83333333  0.50000000  0.00000000  2.777778e-03
  0.83333333  0.50000000  0.10000000  2.777778e-03
  0.83333333  0.50000000  0.20000000  2.777778e-03
  0.83333333  0.50000000  0.30000000  2.777778e-03
  0.83333333  0.50000000  0.40000000  2.777778e-03
  0.83333333  0.50000000  0.50000000  2.777778e-03
  0.83333333  0.50000000  0.60000000  2.777778e-03
  0.83333333  0.50000000  0.70000000  2.777778e-03
  0.83333333  0.50000000  0.80000000  2.777778e-03
  0.83333333  0.50000000  0.90000000  2.777778e-03
  0.83333333  0.66666667  0.00000000  2.777778e-03
  0.83333333  0.66666667  0.10000000  2.777778e-03
  0.83333333  0.66666667  0.20000000  2.777778e-03
  0.83333333  0.66666667  0.30000000  2.777778e-03
  0.83333333  0.66666667  0.40000000  2.777778e-03
  0.83333333  0.66666667  0.50000000  2.777778e-03
  0.83333333  0.66666667  0.60000000  2.777778e-03
  0.83333333  0.66666667  0.70000000  2.777778e-03
  0.83333333  0.66666667  0.80000000  2.777778e-03
  0.83333333  0.66666667  0.90000000  2.777778e-03
  0.83333333  0.83333333  0.00000000  2.777778e-03
  0.83333333  0.83333333  0.10000000  2.777778e-03
  0.83333333  0.83333333  0.20000000  2.777778e-03
  0.83333333  0.83333333  0.30000000  2.777778e-03
  0.83333333  0.83333333  0.40000000  2.777778e-03
  0.83333333  0.83333333  0.50000000  2.777778e-03
  0.83333333  0.83333333  0.60000000  2.777778e-03
  0.83333333  0.83333333  0.70000000  2.777778e-03
  0.83333333  0.83333333  0.80000000  2.777778e-03
  0.83333333  0.83333333  0.90000000  2.777778e-03


