&inputpp
    prefix = 'mp-149'
    outdir='out/',
    plot_num=10,
    emin = 6.716227147746892,
    emax = 7.716227147746892,
    delta_e = 0.1,
/
&plot
    iflag=3,
    output_format=6,
    fileout='ldos.cube',
/
