&inputpp
    prefix = 'mp-1228891'
    outdir='out/',
    plot_num=10,
    emin = 7.3776366610602295,
    emax = 8.577636661060229,
    delta_e = 0.1,
/
&plot
    iflag=3,
    output_format=6,
    fileout='ldos.cube',
/
