&inputpp
    prefix = 'mp-2758'
    outdir='out/',
    plot_num=10,
    emin = 7.74850069805536,
    emax = 8.94850069805536,
    delta_e = 0.1,
/
&plot
    iflag=3,
    output_format=6,
    fileout='ldos.cube',
/
