&CONTROL
  calculation = 'nscf',
  disk_io = 'nowf',
  outdir = 'out/',
  prefix = 'mp-1550',
  pseudo_dir = '/usr/scratch4/magr4985/MG/devEb/pseudo/SG15',
/
&SYSTEM
  celldm(1) = 10.342408779590917,
  degauss = 0.0004593661607577953,
  ecutwfc = 130,
  ibrav = 2,
  nbnd = 16,
  occupations = 'smearing',
  smearing = 'gaussian',
  nat = 2,
  ntyp = 2,
/
&ELECTRONS
  conv_thr = 1d-10,
  diago_full_acc = .TRUE.,
  diago_thr_init = 5d-06,
  diagonalization = 'paro',
/
&IONS
/
&CELL
/
ATOMIC_SPECIES
  Al  26.9815 Al.upf
  P  30.9738 P.upf
ATOMIC_POSITIONS crystal
  Al 0.00000000 0.00000000 0.00000000
  P 0.74999998 0.75000006 0.74999998
K_POINTS tpiba
7
0.0 -0.9999999999999115 0.0 1
0.01 -0.9999999999999115 0.0 1
-0.01 -0.9999999999999115 0.0 1 
0.0 -0.9899999999999115 0.0 1
0.0 -1.0099999999999114 0.0 1 
0.0 -0.9999999999999115 0.01 1
0.0 -0.9999999999999115 -0.01 1 


