&inputpp
    prefix = 'mp-20351'
    outdir='out/',
    plot_num=10,
    emin = 7.917830362113694,
    emax = 8.917830362113694,
    delta_e = 0.1,
/
&plot
    iflag=3,
    output_format=6,
    fileout='ldos.cube',
/
