&inputpp
    prefix = 'mp-612118'
    outdir='out/',
    plot_num=10,
    emin = 4.077418005633138,
    emax = 5.277418005633138,
    delta_e = 0.1,
/
&plot
    iflag=3,
    output_format=6,
    fileout='ldos.cube',
/
