&CONTROL
  calculation = 'nscf',
  disk_io = 'low',
  outdir = 'out/',
  prefix = 'mp-612118',
  pseudo_dir = '/usr/scratch4/magr4985/MG/devEb/pseudo/SG15',
/
&SYSTEM
  celldm(1) = 10.947237293813329,
  degauss = 0.0004593661607577953,
  ecutwfc = 65,
  force_symmorphic = .FALSE.,
  ibrav = 2,
  nbnd = 8,
  nosym = .TRUE.,
  occupations = 'smearing',
  smearing = 'gaussian',
  nat = 1,
  ntyp = 1,
/
&ELECTRONS
  conv_thr = 1d-10,
  diago_full_acc = .TRUE.,
  diago_thr_init = 5d-06,
  diagonalization = 'david',
/
&IONS
/
&CELL
/
ATOMIC_SPECIES
  Kr  83.7980 Kr.upf
ATOMIC_POSITIONS crystal
  Kr 0.00000000 0.00000000 0.00000000
K_POINTS crystal
2744
  0.00000000  0.00000000  0.00000000  3.644315e-04
  0.00000000  0.00000000  0.07142857  3.644315e-04
  0.00000000  0.00000000  0.14285714  3.644315e-04
  0.00000000  0.00000000  0.21428571  3.644315e-04
  0.00000000  0.00000000  0.28571429  3.644315e-04
  0.00000000  0.00000000  0.35714286  3.644315e-04
  0.00000000  0.00000000  0.42857143  3.644315e-04
  0.00000000  0.00000000  0.50000000  3.644315e-04
  0.00000000  0.00000000  0.57142857  3.644315e-04
  0.00000000  0.00000000  0.64285714  3.644315e-04
  0.00000000  0.00000000  0.71428571  3.644315e-04
  0.00000000  0.00000000  0.78571429  3.644315e-04
  0.00000000  0.00000000  0.85714286  3.644315e-04
  0.00000000  0.00000000  0.92857143  3.644315e-04
  0.00000000  0.07142857  0.00000000  3.644315e-04
  0.00000000  0.07142857  0.07142857  3.644315e-04
  0.00000000  0.07142857  0.14285714  3.644315e-04
  0.00000000  0.07142857  0.21428571  3.644315e-04
  0.00000000  0.07142857  0.28571429  3.644315e-04
  0.00000000  0.07142857  0.35714286  3.644315e-04
  0.00000000  0.07142857  0.42857143  3.644315e-04
  0.00000000  0.07142857  0.50000000  3.644315e-04
  0.00000000  0.07142857  0.57142857  3.644315e-04
  0.00000000  0.07142857  0.64285714  3.644315e-04
  0.00000000  0.07142857  0.71428571  3.644315e-04
  0.00000000  0.07142857  0.78571429  3.644315e-04
  0.00000000  0.07142857  0.85714286  3.644315e-04
  0.00000000  0.07142857  0.92857143  3.644315e-04
  0.00000000  0.14285714  0.00000000  3.644315e-04
  0.00000000  0.14285714  0.07142857  3.644315e-04
  0.00000000  0.14285714  0.14285714  3.644315e-04
  0.00000000  0.14285714  0.21428571  3.644315e-04
  0.00000000  0.14285714  0.28571429  3.644315e-04
  0.00000000  0.14285714  0.35714286  3.644315e-04
  0.00000000  0.14285714  0.42857143  3.644315e-04
  0.00000000  0.14285714  0.50000000  3.644315e-04
  0.00000000  0.14285714  0.57142857  3.644315e-04
  0.00000000  0.14285714  0.64285714  3.644315e-04
  0.00000000  0.14285714  0.71428571  3.644315e-04
  0.00000000  0.14285714  0.78571429  3.644315e-04
  0.00000000  0.14285714  0.85714286  3.644315e-04
  0.00000000  0.14285714  0.92857143  3.644315e-04
  0.00000000  0.21428571  0.00000000  3.644315e-04
  0.00000000  0.21428571  0.07142857  3.644315e-04
  0.00000000  0.21428571  0.14285714  3.644315e-04
  0.00000000  0.21428571  0.21428571  3.644315e-04
  0.00000000  0.21428571  0.28571429  3.644315e-04
  0.00000000  0.21428571  0.35714286  3.644315e-04
  0.00000000  0.21428571  0.42857143  3.644315e-04
  0.00000000  0.21428571  0.50000000  3.644315e-04
  0.00000000  0.21428571  0.57142857  3.644315e-04
  0.00000000  0.21428571  0.64285714  3.644315e-04
  0.00000000  0.21428571  0.71428571  3.644315e-04
  0.00000000  0.21428571  0.78571429  3.644315e-04
  0.00000000  0.21428571  0.85714286  3.644315e-04
  0.00000000  0.21428571  0.92857143  3.644315e-04
  0.00000000  0.28571429  0.00000000  3.644315e-04
  0.00000000  0.28571429  0.07142857  3.644315e-04
  0.00000000  0.28571429  0.14285714  3.644315e-04
  0.00000000  0.28571429  0.21428571  3.644315e-04
  0.00000000  0.28571429  0.28571429  3.644315e-04
  0.00000000  0.28571429  0.35714286  3.644315e-04
  0.00000000  0.28571429  0.42857143  3.644315e-04
  0.00000000  0.28571429  0.50000000  3.644315e-04
  0.00000000  0.28571429  0.57142857  3.644315e-04
  0.00000000  0.28571429  0.64285714  3.644315e-04
  0.00000000  0.28571429  0.71428571  3.644315e-04
  0.00000000  0.28571429  0.78571429  3.644315e-04
  0.00000000  0.28571429  0.85714286  3.644315e-04
  0.00000000  0.28571429  0.92857143  3.644315e-04
  0.00000000  0.35714286  0.00000000  3.644315e-04
  0.00000000  0.35714286  0.07142857  3.644315e-04
  0.00000000  0.35714286  0.14285714  3.644315e-04
  0.00000000  0.35714286  0.21428571  3.644315e-04
  0.00000000  0.35714286  0.28571429  3.644315e-04
  0.00000000  0.35714286  0.35714286  3.644315e-04
  0.00000000  0.35714286  0.42857143  3.644315e-04
  0.00000000  0.35714286  0.50000000  3.644315e-04
  0.00000000  0.35714286  0.57142857  3.644315e-04
  0.00000000  0.35714286  0.64285714  3.644315e-04
  0.00000000  0.35714286  0.71428571  3.644315e-04
  0.00000000  0.35714286  0.78571429  3.644315e-04
  0.00000000  0.35714286  0.85714286  3.644315e-04
  0.00000000  0.35714286  0.92857143  3.644315e-04
  0.00000000  0.42857143  0.00000000  3.644315e-04
  0.00000000  0.42857143  0.07142857  3.644315e-04
  0.00000000  0.42857143  0.14285714  3.644315e-04
  0.00000000  0.42857143  0.21428571  3.644315e-04
  0.00000000  0.42857143  0.28571429  3.644315e-04
  0.00000000  0.42857143  0.35714286  3.644315e-04
  0.00000000  0.42857143  0.42857143  3.644315e-04
  0.00000000  0.42857143  0.50000000  3.644315e-04
  0.00000000  0.42857143  0.57142857  3.644315e-04
  0.00000000  0.42857143  0.64285714  3.644315e-04
  0.00000000  0.42857143  0.71428571  3.644315e-04
  0.00000000  0.42857143  0.78571429  3.644315e-04
  0.00000000  0.42857143  0.85714286  3.644315e-04
  0.00000000  0.42857143  0.92857143  3.644315e-04
  0.00000000  0.50000000  0.00000000  3.644315e-04
  0.00000000  0.50000000  0.07142857  3.644315e-04
  0.00000000  0.50000000  0.14285714  3.644315e-04
  0.00000000  0.50000000  0.21428571  3.644315e-04
  0.00000000  0.50000000  0.28571429  3.644315e-04
  0.00000000  0.50000000  0.35714286  3.644315e-04
  0.00000000  0.50000000  0.42857143  3.644315e-04
  0.00000000  0.50000000  0.50000000  3.644315e-04
  0.00000000  0.50000000  0.57142857  3.644315e-04
  0.00000000  0.50000000  0.64285714  3.644315e-04
  0.00000000  0.50000000  0.71428571  3.644315e-04
  0.00000000  0.50000000  0.78571429  3.644315e-04
  0.00000000  0.50000000  0.85714286  3.644315e-04
  0.00000000  0.50000000  0.92857143  3.644315e-04
  0.00000000  0.57142857  0.00000000  3.644315e-04
  0.00000000  0.57142857  0.07142857  3.644315e-04
  0.00000000  0.57142857  0.14285714  3.644315e-04
  0.00000000  0.57142857  0.21428571  3.644315e-04
  0.00000000  0.57142857  0.28571429  3.644315e-04
  0.00000000  0.57142857  0.35714286  3.644315e-04
  0.00000000  0.57142857  0.42857143  3.644315e-04
  0.00000000  0.57142857  0.50000000  3.644315e-04
  0.00000000  0.57142857  0.57142857  3.644315e-04
  0.00000000  0.57142857  0.64285714  3.644315e-04
  0.00000000  0.57142857  0.71428571  3.644315e-04
  0.00000000  0.57142857  0.78571429  3.644315e-04
  0.00000000  0.57142857  0.85714286  3.644315e-04
  0.00000000  0.57142857  0.92857143  3.644315e-04
  0.00000000  0.64285714  0.00000000  3.644315e-04
  0.00000000  0.64285714  0.07142857  3.644315e-04
  0.00000000  0.64285714  0.14285714  3.644315e-04
  0.00000000  0.64285714  0.21428571  3.644315e-04
  0.00000000  0.64285714  0.28571429  3.644315e-04
  0.00000000  0.64285714  0.35714286  3.644315e-04
  0.00000000  0.64285714  0.42857143  3.644315e-04
  0.00000000  0.64285714  0.50000000  3.644315e-04
  0.00000000  0.64285714  0.57142857  3.644315e-04
  0.00000000  0.64285714  0.64285714  3.644315e-04
  0.00000000  0.64285714  0.71428571  3.644315e-04
  0.00000000  0.64285714  0.78571429  3.644315e-04
  0.00000000  0.64285714  0.85714286  3.644315e-04
  0.00000000  0.64285714  0.92857143  3.644315e-04
  0.00000000  0.71428571  0.00000000  3.644315e-04
  0.00000000  0.71428571  0.07142857  3.644315e-04
  0.00000000  0.71428571  0.14285714  3.644315e-04
  0.00000000  0.71428571  0.21428571  3.644315e-04
  0.00000000  0.71428571  0.28571429  3.644315e-04
  0.00000000  0.71428571  0.35714286  3.644315e-04
  0.00000000  0.71428571  0.42857143  3.644315e-04
  0.00000000  0.71428571  0.50000000  3.644315e-04
  0.00000000  0.71428571  0.57142857  3.644315e-04
  0.00000000  0.71428571  0.64285714  3.644315e-04
  0.00000000  0.71428571  0.71428571  3.644315e-04
  0.00000000  0.71428571  0.78571429  3.644315e-04
  0.00000000  0.71428571  0.85714286  3.644315e-04
  0.00000000  0.71428571  0.92857143  3.644315e-04
  0.00000000  0.78571429  0.00000000  3.644315e-04
  0.00000000  0.78571429  0.07142857  3.644315e-04
  0.00000000  0.78571429  0.14285714  3.644315e-04
  0.00000000  0.78571429  0.21428571  3.644315e-04
  0.00000000  0.78571429  0.28571429  3.644315e-04
  0.00000000  0.78571429  0.35714286  3.644315e-04
  0.00000000  0.78571429  0.42857143  3.644315e-04
  0.00000000  0.78571429  0.50000000  3.644315e-04
  0.00000000  0.78571429  0.57142857  3.644315e-04
  0.00000000  0.78571429  0.64285714  3.644315e-04
  0.00000000  0.78571429  0.71428571  3.644315e-04
  0.00000000  0.78571429  0.78571429  3.644315e-04
  0.00000000  0.78571429  0.85714286  3.644315e-04
  0.00000000  0.78571429  0.92857143  3.644315e-04
  0.00000000  0.85714286  0.00000000  3.644315e-04
  0.00000000  0.85714286  0.07142857  3.644315e-04
  0.00000000  0.85714286  0.14285714  3.644315e-04
  0.00000000  0.85714286  0.21428571  3.644315e-04
  0.00000000  0.85714286  0.28571429  3.644315e-04
  0.00000000  0.85714286  0.35714286  3.644315e-04
  0.00000000  0.85714286  0.42857143  3.644315e-04
  0.00000000  0.85714286  0.50000000  3.644315e-04
  0.00000000  0.85714286  0.57142857  3.644315e-04
  0.00000000  0.85714286  0.64285714  3.644315e-04
  0.00000000  0.85714286  0.71428571  3.644315e-04
  0.00000000  0.85714286  0.78571429  3.644315e-04
  0.00000000  0.85714286  0.85714286  3.644315e-04
  0.00000000  0.85714286  0.92857143  3.644315e-04
  0.00000000  0.92857143  0.00000000  3.644315e-04
  0.00000000  0.92857143  0.07142857  3.644315e-04
  0.00000000  0.92857143  0.14285714  3.644315e-04
  0.00000000  0.92857143  0.21428571  3.644315e-04
  0.00000000  0.92857143  0.28571429  3.644315e-04
  0.00000000  0.92857143  0.35714286  3.644315e-04
  0.00000000  0.92857143  0.42857143  3.644315e-04
  0.00000000  0.92857143  0.50000000  3.644315e-04
  0.00000000  0.92857143  0.57142857  3.644315e-04
  0.00000000  0.92857143  0.64285714  3.644315e-04
  0.00000000  0.92857143  0.71428571  3.644315e-04
  0.00000000  0.92857143  0.78571429  3.644315e-04
  0.00000000  0.92857143  0.85714286  3.644315e-04
  0.00000000  0.92857143  0.92857143  3.644315e-04
  0.07142857  0.00000000  0.00000000  3.644315e-04
  0.07142857  0.00000000  0.07142857  3.644315e-04
  0.07142857  0.00000000  0.14285714  3.644315e-04
  0.07142857  0.00000000  0.21428571  3.644315e-04
  0.07142857  0.00000000  0.28571429  3.644315e-04
  0.07142857  0.00000000  0.35714286  3.644315e-04
  0.07142857  0.00000000  0.42857143  3.644315e-04
  0.07142857  0.00000000  0.50000000  3.644315e-04
  0.07142857  0.00000000  0.57142857  3.644315e-04
  0.07142857  0.00000000  0.64285714  3.644315e-04
  0.07142857  0.00000000  0.71428571  3.644315e-04
  0.07142857  0.00000000  0.78571429  3.644315e-04
  0.07142857  0.00000000  0.85714286  3.644315e-04
  0.07142857  0.00000000  0.92857143  3.644315e-04
  0.07142857  0.07142857  0.00000000  3.644315e-04
  0.07142857  0.07142857  0.07142857  3.644315e-04
  0.07142857  0.07142857  0.14285714  3.644315e-04
  0.07142857  0.07142857  0.21428571  3.644315e-04
  0.07142857  0.07142857  0.28571429  3.644315e-04
  0.07142857  0.07142857  0.35714286  3.644315e-04
  0.07142857  0.07142857  0.42857143  3.644315e-04
  0.07142857  0.07142857  0.50000000  3.644315e-04
  0.07142857  0.07142857  0.57142857  3.644315e-04
  0.07142857  0.07142857  0.64285714  3.644315e-04
  0.07142857  0.07142857  0.71428571  3.644315e-04
  0.07142857  0.07142857  0.78571429  3.644315e-04
  0.07142857  0.07142857  0.85714286  3.644315e-04
  0.07142857  0.07142857  0.92857143  3.644315e-04
  0.07142857  0.14285714  0.00000000  3.644315e-04
  0.07142857  0.14285714  0.07142857  3.644315e-04
  0.07142857  0.14285714  0.14285714  3.644315e-04
  0.07142857  0.14285714  0.21428571  3.644315e-04
  0.07142857  0.14285714  0.28571429  3.644315e-04
  0.07142857  0.14285714  0.35714286  3.644315e-04
  0.07142857  0.14285714  0.42857143  3.644315e-04
  0.07142857  0.14285714  0.50000000  3.644315e-04
  0.07142857  0.14285714  0.57142857  3.644315e-04
  0.07142857  0.14285714  0.64285714  3.644315e-04
  0.07142857  0.14285714  0.71428571  3.644315e-04
  0.07142857  0.14285714  0.78571429  3.644315e-04
  0.07142857  0.14285714  0.85714286  3.644315e-04
  0.07142857  0.14285714  0.92857143  3.644315e-04
  0.07142857  0.21428571  0.00000000  3.644315e-04
  0.07142857  0.21428571  0.07142857  3.644315e-04
  0.07142857  0.21428571  0.14285714  3.644315e-04
  0.07142857  0.21428571  0.21428571  3.644315e-04
  0.07142857  0.21428571  0.28571429  3.644315e-04
  0.07142857  0.21428571  0.35714286  3.644315e-04
  0.07142857  0.21428571  0.42857143  3.644315e-04
  0.07142857  0.21428571  0.50000000  3.644315e-04
  0.07142857  0.21428571  0.57142857  3.644315e-04
  0.07142857  0.21428571  0.64285714  3.644315e-04
  0.07142857  0.21428571  0.71428571  3.644315e-04
  0.07142857  0.21428571  0.78571429  3.644315e-04
  0.07142857  0.21428571  0.85714286  3.644315e-04
  0.07142857  0.21428571  0.92857143  3.644315e-04
  0.07142857  0.28571429  0.00000000  3.644315e-04
  0.07142857  0.28571429  0.07142857  3.644315e-04
  0.07142857  0.28571429  0.14285714  3.644315e-04
  0.07142857  0.28571429  0.21428571  3.644315e-04
  0.07142857  0.28571429  0.28571429  3.644315e-04
  0.07142857  0.28571429  0.35714286  3.644315e-04
  0.07142857  0.28571429  0.42857143  3.644315e-04
  0.07142857  0.28571429  0.50000000  3.644315e-04
  0.07142857  0.28571429  0.57142857  3.644315e-04
  0.07142857  0.28571429  0.64285714  3.644315e-04
  0.07142857  0.28571429  0.71428571  3.644315e-04
  0.07142857  0.28571429  0.78571429  3.644315e-04
  0.07142857  0.28571429  0.85714286  3.644315e-04
  0.07142857  0.28571429  0.92857143  3.644315e-04
  0.07142857  0.35714286  0.00000000  3.644315e-04
  0.07142857  0.35714286  0.07142857  3.644315e-04
  0.07142857  0.35714286  0.14285714  3.644315e-04
  0.07142857  0.35714286  0.21428571  3.644315e-04
  0.07142857  0.35714286  0.28571429  3.644315e-04
  0.07142857  0.35714286  0.35714286  3.644315e-04
  0.07142857  0.35714286  0.42857143  3.644315e-04
  0.07142857  0.35714286  0.50000000  3.644315e-04
  0.07142857  0.35714286  0.57142857  3.644315e-04
  0.07142857  0.35714286  0.64285714  3.644315e-04
  0.07142857  0.35714286  0.71428571  3.644315e-04
  0.07142857  0.35714286  0.78571429  3.644315e-04
  0.07142857  0.35714286  0.85714286  3.644315e-04
  0.07142857  0.35714286  0.92857143  3.644315e-04
  0.07142857  0.42857143  0.00000000  3.644315e-04
  0.07142857  0.42857143  0.07142857  3.644315e-04
  0.07142857  0.42857143  0.14285714  3.644315e-04
  0.07142857  0.42857143  0.21428571  3.644315e-04
  0.07142857  0.42857143  0.28571429  3.644315e-04
  0.07142857  0.42857143  0.35714286  3.644315e-04
  0.07142857  0.42857143  0.42857143  3.644315e-04
  0.07142857  0.42857143  0.50000000  3.644315e-04
  0.07142857  0.42857143  0.57142857  3.644315e-04
  0.07142857  0.42857143  0.64285714  3.644315e-04
  0.07142857  0.42857143  0.71428571  3.644315e-04
  0.07142857  0.42857143  0.78571429  3.644315e-04
  0.07142857  0.42857143  0.85714286  3.644315e-04
  0.07142857  0.42857143  0.92857143  3.644315e-04
  0.07142857  0.50000000  0.00000000  3.644315e-04
  0.07142857  0.50000000  0.07142857  3.644315e-04
  0.07142857  0.50000000  0.14285714  3.644315e-04
  0.07142857  0.50000000  0.21428571  3.644315e-04
  0.07142857  0.50000000  0.28571429  3.644315e-04
  0.07142857  0.50000000  0.35714286  3.644315e-04
  0.07142857  0.50000000  0.42857143  3.644315e-04
  0.07142857  0.50000000  0.50000000  3.644315e-04
  0.07142857  0.50000000  0.57142857  3.644315e-04
  0.07142857  0.50000000  0.64285714  3.644315e-04
  0.07142857  0.50000000  0.71428571  3.644315e-04
  0.07142857  0.50000000  0.78571429  3.644315e-04
  0.07142857  0.50000000  0.85714286  3.644315e-04
  0.07142857  0.50000000  0.92857143  3.644315e-04
  0.07142857  0.57142857  0.00000000  3.644315e-04
  0.07142857  0.57142857  0.07142857  3.644315e-04
  0.07142857  0.57142857  0.14285714  3.644315e-04
  0.07142857  0.57142857  0.21428571  3.644315e-04
  0.07142857  0.57142857  0.28571429  3.644315e-04
  0.07142857  0.57142857  0.35714286  3.644315e-04
  0.07142857  0.57142857  0.42857143  3.644315e-04
  0.07142857  0.57142857  0.50000000  3.644315e-04
  0.07142857  0.57142857  0.57142857  3.644315e-04
  0.07142857  0.57142857  0.64285714  3.644315e-04
  0.07142857  0.57142857  0.71428571  3.644315e-04
  0.07142857  0.57142857  0.78571429  3.644315e-04
  0.07142857  0.57142857  0.85714286  3.644315e-04
  0.07142857  0.57142857  0.92857143  3.644315e-04
  0.07142857  0.64285714  0.00000000  3.644315e-04
  0.07142857  0.64285714  0.07142857  3.644315e-04
  0.07142857  0.64285714  0.14285714  3.644315e-04
  0.07142857  0.64285714  0.21428571  3.644315e-04
  0.07142857  0.64285714  0.28571429  3.644315e-04
  0.07142857  0.64285714  0.35714286  3.644315e-04
  0.07142857  0.64285714  0.42857143  3.644315e-04
  0.07142857  0.64285714  0.50000000  3.644315e-04
  0.07142857  0.64285714  0.57142857  3.644315e-04
  0.07142857  0.64285714  0.64285714  3.644315e-04
  0.07142857  0.64285714  0.71428571  3.644315e-04
  0.07142857  0.64285714  0.78571429  3.644315e-04
  0.07142857  0.64285714  0.85714286  3.644315e-04
  0.07142857  0.64285714  0.92857143  3.644315e-04
  0.07142857  0.71428571  0.00000000  3.644315e-04
  0.07142857  0.71428571  0.07142857  3.644315e-04
  0.07142857  0.71428571  0.14285714  3.644315e-04
  0.07142857  0.71428571  0.21428571  3.644315e-04
  0.07142857  0.71428571  0.28571429  3.644315e-04
  0.07142857  0.71428571  0.35714286  3.644315e-04
  0.07142857  0.71428571  0.42857143  3.644315e-04
  0.07142857  0.71428571  0.50000000  3.644315e-04
  0.07142857  0.71428571  0.57142857  3.644315e-04
  0.07142857  0.71428571  0.64285714  3.644315e-04
  0.07142857  0.71428571  0.71428571  3.644315e-04
  0.07142857  0.71428571  0.78571429  3.644315e-04
  0.07142857  0.71428571  0.85714286  3.644315e-04
  0.07142857  0.71428571  0.92857143  3.644315e-04
  0.07142857  0.78571429  0.00000000  3.644315e-04
  0.07142857  0.78571429  0.07142857  3.644315e-04
  0.07142857  0.78571429  0.14285714  3.644315e-04
  0.07142857  0.78571429  0.21428571  3.644315e-04
  0.07142857  0.78571429  0.28571429  3.644315e-04
  0.07142857  0.78571429  0.35714286  3.644315e-04
  0.07142857  0.78571429  0.42857143  3.644315e-04
  0.07142857  0.78571429  0.50000000  3.644315e-04
  0.07142857  0.78571429  0.57142857  3.644315e-04
  0.07142857  0.78571429  0.64285714  3.644315e-04
  0.07142857  0.78571429  0.71428571  3.644315e-04
  0.07142857  0.78571429  0.78571429  3.644315e-04
  0.07142857  0.78571429  0.85714286  3.644315e-04
  0.07142857  0.78571429  0.92857143  3.644315e-04
  0.07142857  0.85714286  0.00000000  3.644315e-04
  0.07142857  0.85714286  0.07142857  3.644315e-04
  0.07142857  0.85714286  0.14285714  3.644315e-04
  0.07142857  0.85714286  0.21428571  3.644315e-04
  0.07142857  0.85714286  0.28571429  3.644315e-04
  0.07142857  0.85714286  0.35714286  3.644315e-04
  0.07142857  0.85714286  0.42857143  3.644315e-04
  0.07142857  0.85714286  0.50000000  3.644315e-04
  0.07142857  0.85714286  0.57142857  3.644315e-04
  0.07142857  0.85714286  0.64285714  3.644315e-04
  0.07142857  0.85714286  0.71428571  3.644315e-04
  0.07142857  0.85714286  0.78571429  3.644315e-04
  0.07142857  0.85714286  0.85714286  3.644315e-04
  0.07142857  0.85714286  0.92857143  3.644315e-04
  0.07142857  0.92857143  0.00000000  3.644315e-04
  0.07142857  0.92857143  0.07142857  3.644315e-04
  0.07142857  0.92857143  0.14285714  3.644315e-04
  0.07142857  0.92857143  0.21428571  3.644315e-04
  0.07142857  0.92857143  0.28571429  3.644315e-04
  0.07142857  0.92857143  0.35714286  3.644315e-04
  0.07142857  0.92857143  0.42857143  3.644315e-04
  0.07142857  0.92857143  0.50000000  3.644315e-04
  0.07142857  0.92857143  0.57142857  3.644315e-04
  0.07142857  0.92857143  0.64285714  3.644315e-04
  0.07142857  0.92857143  0.71428571  3.644315e-04
  0.07142857  0.92857143  0.78571429  3.644315e-04
  0.07142857  0.92857143  0.85714286  3.644315e-04
  0.07142857  0.92857143  0.92857143  3.644315e-04
  0.14285714  0.00000000  0.00000000  3.644315e-04
  0.14285714  0.00000000  0.07142857  3.644315e-04
  0.14285714  0.00000000  0.14285714  3.644315e-04
  0.14285714  0.00000000  0.21428571  3.644315e-04
  0.14285714  0.00000000  0.28571429  3.644315e-04
  0.14285714  0.00000000  0.35714286  3.644315e-04
  0.14285714  0.00000000  0.42857143  3.644315e-04
  0.14285714  0.00000000  0.50000000  3.644315e-04
  0.14285714  0.00000000  0.57142857  3.644315e-04
  0.14285714  0.00000000  0.64285714  3.644315e-04
  0.14285714  0.00000000  0.71428571  3.644315e-04
  0.14285714  0.00000000  0.78571429  3.644315e-04
  0.14285714  0.00000000  0.85714286  3.644315e-04
  0.14285714  0.00000000  0.92857143  3.644315e-04
  0.14285714  0.07142857  0.00000000  3.644315e-04
  0.14285714  0.07142857  0.07142857  3.644315e-04
  0.14285714  0.07142857  0.14285714  3.644315e-04
  0.14285714  0.07142857  0.21428571  3.644315e-04
  0.14285714  0.07142857  0.28571429  3.644315e-04
  0.14285714  0.07142857  0.35714286  3.644315e-04
  0.14285714  0.07142857  0.42857143  3.644315e-04
  0.14285714  0.07142857  0.50000000  3.644315e-04
  0.14285714  0.07142857  0.57142857  3.644315e-04
  0.14285714  0.07142857  0.64285714  3.644315e-04
  0.14285714  0.07142857  0.71428571  3.644315e-04
  0.14285714  0.07142857  0.78571429  3.644315e-04
  0.14285714  0.07142857  0.85714286  3.644315e-04
  0.14285714  0.07142857  0.92857143  3.644315e-04
  0.14285714  0.14285714  0.00000000  3.644315e-04
  0.14285714  0.14285714  0.07142857  3.644315e-04
  0.14285714  0.14285714  0.14285714  3.644315e-04
  0.14285714  0.14285714  0.21428571  3.644315e-04
  0.14285714  0.14285714  0.28571429  3.644315e-04
  0.14285714  0.14285714  0.35714286  3.644315e-04
  0.14285714  0.14285714  0.42857143  3.644315e-04
  0.14285714  0.14285714  0.50000000  3.644315e-04
  0.14285714  0.14285714  0.57142857  3.644315e-04
  0.14285714  0.14285714  0.64285714  3.644315e-04
  0.14285714  0.14285714  0.71428571  3.644315e-04
  0.14285714  0.14285714  0.78571429  3.644315e-04
  0.14285714  0.14285714  0.85714286  3.644315e-04
  0.14285714  0.14285714  0.92857143  3.644315e-04
  0.14285714  0.21428571  0.00000000  3.644315e-04
  0.14285714  0.21428571  0.07142857  3.644315e-04
  0.14285714  0.21428571  0.14285714  3.644315e-04
  0.14285714  0.21428571  0.21428571  3.644315e-04
  0.14285714  0.21428571  0.28571429  3.644315e-04
  0.14285714  0.21428571  0.35714286  3.644315e-04
  0.14285714  0.21428571  0.42857143  3.644315e-04
  0.14285714  0.21428571  0.50000000  3.644315e-04
  0.14285714  0.21428571  0.57142857  3.644315e-04
  0.14285714  0.21428571  0.64285714  3.644315e-04
  0.14285714  0.21428571  0.71428571  3.644315e-04
  0.14285714  0.21428571  0.78571429  3.644315e-04
  0.14285714  0.21428571  0.85714286  3.644315e-04
  0.14285714  0.21428571  0.92857143  3.644315e-04
  0.14285714  0.28571429  0.00000000  3.644315e-04
  0.14285714  0.28571429  0.07142857  3.644315e-04
  0.14285714  0.28571429  0.14285714  3.644315e-04
  0.14285714  0.28571429  0.21428571  3.644315e-04
  0.14285714  0.28571429  0.28571429  3.644315e-04
  0.14285714  0.28571429  0.35714286  3.644315e-04
  0.14285714  0.28571429  0.42857143  3.644315e-04
  0.14285714  0.28571429  0.50000000  3.644315e-04
  0.14285714  0.28571429  0.57142857  3.644315e-04
  0.14285714  0.28571429  0.64285714  3.644315e-04
  0.14285714  0.28571429  0.71428571  3.644315e-04
  0.14285714  0.28571429  0.78571429  3.644315e-04
  0.14285714  0.28571429  0.85714286  3.644315e-04
  0.14285714  0.28571429  0.92857143  3.644315e-04
  0.14285714  0.35714286  0.00000000  3.644315e-04
  0.14285714  0.35714286  0.07142857  3.644315e-04
  0.14285714  0.35714286  0.14285714  3.644315e-04
  0.14285714  0.35714286  0.21428571  3.644315e-04
  0.14285714  0.35714286  0.28571429  3.644315e-04
  0.14285714  0.35714286  0.35714286  3.644315e-04
  0.14285714  0.35714286  0.42857143  3.644315e-04
  0.14285714  0.35714286  0.50000000  3.644315e-04
  0.14285714  0.35714286  0.57142857  3.644315e-04
  0.14285714  0.35714286  0.64285714  3.644315e-04
  0.14285714  0.35714286  0.71428571  3.644315e-04
  0.14285714  0.35714286  0.78571429  3.644315e-04
  0.14285714  0.35714286  0.85714286  3.644315e-04
  0.14285714  0.35714286  0.92857143  3.644315e-04
  0.14285714  0.42857143  0.00000000  3.644315e-04
  0.14285714  0.42857143  0.07142857  3.644315e-04
  0.14285714  0.42857143  0.14285714  3.644315e-04
  0.14285714  0.42857143  0.21428571  3.644315e-04
  0.14285714  0.42857143  0.28571429  3.644315e-04
  0.14285714  0.42857143  0.35714286  3.644315e-04
  0.14285714  0.42857143  0.42857143  3.644315e-04
  0.14285714  0.42857143  0.50000000  3.644315e-04
  0.14285714  0.42857143  0.57142857  3.644315e-04
  0.14285714  0.42857143  0.64285714  3.644315e-04
  0.14285714  0.42857143  0.71428571  3.644315e-04
  0.14285714  0.42857143  0.78571429  3.644315e-04
  0.14285714  0.42857143  0.85714286  3.644315e-04
  0.14285714  0.42857143  0.92857143  3.644315e-04
  0.14285714  0.50000000  0.00000000  3.644315e-04
  0.14285714  0.50000000  0.07142857  3.644315e-04
  0.14285714  0.50000000  0.14285714  3.644315e-04
  0.14285714  0.50000000  0.21428571  3.644315e-04
  0.14285714  0.50000000  0.28571429  3.644315e-04
  0.14285714  0.50000000  0.35714286  3.644315e-04
  0.14285714  0.50000000  0.42857143  3.644315e-04
  0.14285714  0.50000000  0.50000000  3.644315e-04
  0.14285714  0.50000000  0.57142857  3.644315e-04
  0.14285714  0.50000000  0.64285714  3.644315e-04
  0.14285714  0.50000000  0.71428571  3.644315e-04
  0.14285714  0.50000000  0.78571429  3.644315e-04
  0.14285714  0.50000000  0.85714286  3.644315e-04
  0.14285714  0.50000000  0.92857143  3.644315e-04
  0.14285714  0.57142857  0.00000000  3.644315e-04
  0.14285714  0.57142857  0.07142857  3.644315e-04
  0.14285714  0.57142857  0.14285714  3.644315e-04
  0.14285714  0.57142857  0.21428571  3.644315e-04
  0.14285714  0.57142857  0.28571429  3.644315e-04
  0.14285714  0.57142857  0.35714286  3.644315e-04
  0.14285714  0.57142857  0.42857143  3.644315e-04
  0.14285714  0.57142857  0.50000000  3.644315e-04
  0.14285714  0.57142857  0.57142857  3.644315e-04
  0.14285714  0.57142857  0.64285714  3.644315e-04
  0.14285714  0.57142857  0.71428571  3.644315e-04
  0.14285714  0.57142857  0.78571429  3.644315e-04
  0.14285714  0.57142857  0.85714286  3.644315e-04
  0.14285714  0.57142857  0.92857143  3.644315e-04
  0.14285714  0.64285714  0.00000000  3.644315e-04
  0.14285714  0.64285714  0.07142857  3.644315e-04
  0.14285714  0.64285714  0.14285714  3.644315e-04
  0.14285714  0.64285714  0.21428571  3.644315e-04
  0.14285714  0.64285714  0.28571429  3.644315e-04
  0.14285714  0.64285714  0.35714286  3.644315e-04
  0.14285714  0.64285714  0.42857143  3.644315e-04
  0.14285714  0.64285714  0.50000000  3.644315e-04
  0.14285714  0.64285714  0.57142857  3.644315e-04
  0.14285714  0.64285714  0.64285714  3.644315e-04
  0.14285714  0.64285714  0.71428571  3.644315e-04
  0.14285714  0.64285714  0.78571429  3.644315e-04
  0.14285714  0.64285714  0.85714286  3.644315e-04
  0.14285714  0.64285714  0.92857143  3.644315e-04
  0.14285714  0.71428571  0.00000000  3.644315e-04
  0.14285714  0.71428571  0.07142857  3.644315e-04
  0.14285714  0.71428571  0.14285714  3.644315e-04
  0.14285714  0.71428571  0.21428571  3.644315e-04
  0.14285714  0.71428571  0.28571429  3.644315e-04
  0.14285714  0.71428571  0.35714286  3.644315e-04
  0.14285714  0.71428571  0.42857143  3.644315e-04
  0.14285714  0.71428571  0.50000000  3.644315e-04
  0.14285714  0.71428571  0.57142857  3.644315e-04
  0.14285714  0.71428571  0.64285714  3.644315e-04
  0.14285714  0.71428571  0.71428571  3.644315e-04
  0.14285714  0.71428571  0.78571429  3.644315e-04
  0.14285714  0.71428571  0.85714286  3.644315e-04
  0.14285714  0.71428571  0.92857143  3.644315e-04
  0.14285714  0.78571429  0.00000000  3.644315e-04
  0.14285714  0.78571429  0.07142857  3.644315e-04
  0.14285714  0.78571429  0.14285714  3.644315e-04
  0.14285714  0.78571429  0.21428571  3.644315e-04
  0.14285714  0.78571429  0.28571429  3.644315e-04
  0.14285714  0.78571429  0.35714286  3.644315e-04
  0.14285714  0.78571429  0.42857143  3.644315e-04
  0.14285714  0.78571429  0.50000000  3.644315e-04
  0.14285714  0.78571429  0.57142857  3.644315e-04
  0.14285714  0.78571429  0.64285714  3.644315e-04
  0.14285714  0.78571429  0.71428571  3.644315e-04
  0.14285714  0.78571429  0.78571429  3.644315e-04
  0.14285714  0.78571429  0.85714286  3.644315e-04
  0.14285714  0.78571429  0.92857143  3.644315e-04
  0.14285714  0.85714286  0.00000000  3.644315e-04
  0.14285714  0.85714286  0.07142857  3.644315e-04
  0.14285714  0.85714286  0.14285714  3.644315e-04
  0.14285714  0.85714286  0.21428571  3.644315e-04
  0.14285714  0.85714286  0.28571429  3.644315e-04
  0.14285714  0.85714286  0.35714286  3.644315e-04
  0.14285714  0.85714286  0.42857143  3.644315e-04
  0.14285714  0.85714286  0.50000000  3.644315e-04
  0.14285714  0.85714286  0.57142857  3.644315e-04
  0.14285714  0.85714286  0.64285714  3.644315e-04
  0.14285714  0.85714286  0.71428571  3.644315e-04
  0.14285714  0.85714286  0.78571429  3.644315e-04
  0.14285714  0.85714286  0.85714286  3.644315e-04
  0.14285714  0.85714286  0.92857143  3.644315e-04
  0.14285714  0.92857143  0.00000000  3.644315e-04