&inputpp
    prefix = 'mp-22875'
    outdir='out/',
    plot_num=10,
    emin = 7.29915479077502,
    emax = 8.29915479077502,
    delta_e = 0.1,
/
&plot
    iflag=3,
    output_format=6,
    fileout='ldos.cube',
/
