K1 I1
1.0
  -3.5424353436281488    0.0000000000000000    3.5424353436281488
   0.0000000000000000    3.5424353436281488    3.5424353436281488
  -3.5424353436281488    3.5424353436281488    0.0000000000000000
K I
1 1
direct
   0.0000000000000000    0.0000000000000000    0.0000000000000000 K
   0.4999999615946624    0.5000000384053375    0.4999999615946623 I
