&CONTROL
  calculation = 'nscf',
  disk_io = 'nowf',
  outdir = 'out/',
  prefix = 'mp-23703',
  pseudo_dir = '/usr/scratch4/magr4985/MG/devEb/pseudo/SG15',
/
&SYSTEM
  celldm(1) = 7.591480532134327,
  degauss = 0.0004593661607577953,
  ecutwfc = 130,
  ibrav = 2,
  nbnd = 8,
  occupations = 'smearing',
  smearing = 'gaussian',
  nat = 2,
  ntyp = 2,
/
&ELECTRONS
  conv_thr = 1d-10,
  diago_full_acc = .TRUE.,
  diago_thr_init = 5d-06,
  diagonalization = 'paro',
/
&IONS
/
&CELL
/
ATOMIC_SPECIES
  H  1.0079 H.upf
  Li  6.9410 Li.upf
ATOMIC_POSITIONS crystal
  Li 0.00000000 0.00000000 0.00000000
  H 0.49999996 0.50000004 0.49999996
K_POINTS tpiba
7
0.0 -0.9999999999999571 0.0 1
0.01 -0.9999999999999571 0.0 1
-0.01 -0.9999999999999571 0.0 1 
0.0 -0.9899999999999571 0.0 1
0.0 -1.0099999999999572 0.0 1 
0.0 -0.9999999999999571 0.01 1
0.0 -0.9999999999999571 -0.01 1 


