Al1 P1
1.0
  -2.7364835028175389    0.0000000000000000    2.7364835028175389
   0.0000000000000000    2.7364835028175389    2.7364835028175389
  -2.7364835028175389    2.7364835028175389    0.0000000000000000
Al P
1 1
direct
   0.0000000000000000    0.0000000000000000    0.0000000000000000 Al
   0.7499999807973312    0.7500000576080064    0.7499999807973311 P
