pymatgen with grid density = 3000 / number of atoms
0
Gamma
8 8 8
