Cs1 Pb1 Cl3
1.0
   5.6798443337273223    0.0000000000000000    0.0000000000000000
   0.0000000000000000    5.6798443337273223    0.0000000000000000
   0.0000000000000000    0.0000000000000000    5.6798443337273223
Cs Pb Cl
1 1 3
direct
   0.0000000000000000    0.0000000000000000    0.0000000000000000 Cs
   0.5000000384053376    0.5000000384053376    0.5000000384053376 Pb
   0.0000000000000001    0.5000000384053376    0.5000000384053376 Cl
   0.5000000384053376    0.0000000000000000    0.5000000384053376 Cl
   0.5000000384053376    0.5000000384053376    0.0000000000000001 Cl
