&inputpp
    prefix = 'mp-2064'
    outdir='out/',
    plot_num=10,
    emin = 9.998605353209458,
    emax = 10.998605353209458,
    delta_e = 0.1,
/
&plot
    iflag=3,
    output_format=6,
    fileout='ldos.cube',
/
