Ca1 Se1
1.0
  -2.9702378770257201    0.0000000000000000    2.9702378770257201
   0.0000000000000000    2.9702378770257201    2.9702378770257201
  -2.9702378770257201    2.9702378770257201    0.0000000000000000
Ca Se
1 1
direct
   0.0000000000000000    0.0000000000000000    0.0000000000000000 Ca
   0.4999999615946624    0.5000000384053375    0.4999999615946624 Se
