&inputpp
    prefix = 'mp-909'
    outdir='out/',
    plot_num=10,
    emin = 5.361302248033696,
    emax = 6.561302248033696,
    delta_e = 0.1,
/
&plot
    iflag=3,
    output_format=6,
    fileout='ldos.cube',
/
