Xe1
1.0
  -3.2464673960106412    0.0000000000000000    3.2464673960106412
   0.0000000000000000    3.2464673960106412    3.2464673960106412
  -3.2464673960106412    3.2464673960106412    0.0000000000000000
Xe
1
direct
   0.0000000000000000    0.0000000000000000    0.0000000000000000 Xe
