Pb4 Cl8
1.0
   4.5480261306630423    0.0000000000000000    0.0000000000000000
   0.0000000000000000    7.6715112907460377    0.0000000000000000
   0.0000000000000000    0.0000000000000000    9.1711089555609302
Pb Cl
4 8
direct
   0.2500000192026688    0.2636527102513412    0.9094460498551598 Pb
   0.7500000576080065    0.7363473665593340    0.0905540269555155 Pb
   0.2500000192026690    0.7636527486566788    0.5905540653608530 Pb
   0.7500000576080064    0.2363473281539964    0.4094460114498223 Pb
   0.2500000192026690    0.4827690270818119    0.1576477021090257 Cl
   0.7500000576080064    0.5172310497288632    0.8423523747016496 Cl
   0.2500000192026690    0.9827690654871495    0.3423523362963120 Cl
   0.7500000576080063    0.0172310113235257    0.6576477405143631 Cl
   0.7500000576080065    0.6414613992710795    0.4226266524622360 Cl
   0.2500000192026689    0.3585386775395958    0.5773734243484391 Cl
   0.7500000576080063    0.1414613608657420    0.0773733859431016 Cl
   0.2500000192026690    0.8585387159449333    0.9226266908675734 Cl
