&CONTROL
  calculation = 'nscf',
  disk_io = 'nowf',
  outdir = 'out/',
  prefix = 'mp-23037',
  pseudo_dir = '/usr/scratch4/magr4985/MG/devEb/pseudo/SG15',
/
&SYSTEM
  celldm(1) = 10.733350272963078,
  degauss = 0.0004593661607577953,
  ecutwfc = 130,
  ibrav = 1,
  nbnd = 44,
  occupations = 'smearing',
  smearing = 'gaussian',
  nat = 5,
  ntyp = 3,
/
&ELECTRONS
  conv_thr = 1d-10,
  diago_full_acc = .TRUE.,
  diago_thr_init = 5d-06,
  diagonalization = 'paro',
/
&IONS
/
&CELL
/
ATOMIC_SPECIES
  Cl  35.4530 Cl.upf
  Cs  132.9055 Cs.upf
  Pb  207.2000 Pb.upf
ATOMIC_POSITIONS crystal
  Cs 0.00000000 0.00000000 0.00000000
  Pb 0.50000004 0.50000004 0.50000004
  Cl 0.00000000 0.50000004 0.50000004
  Cl 0.50000004 0.00000000 0.50000004
  Cl 0.50000004 0.50000004 0.00000000
K_POINTS tpiba
7
-0.4999999999998566 -0.4999999999998566 -0.4999999999998566 1
-0.4899999999998566 -0.4999999999998566 -0.4999999999998566 1
-0.5099999999998566 -0.4999999999998566 -0.4999999999998566 1 
-0.4999999999998566 -0.4899999999998566 -0.4999999999998566 1
-0.4999999999998566 -0.5099999999998566 -0.4999999999998566 1 
-0.4999999999998566 -0.4999999999998566 -0.4899999999998566 1
-0.4999999999998566 -0.4999999999998566 -0.5099999999998566 1 


