Na1 F1
1.0
  -2.2858941561442232    0.0000000000000000    2.2858941561442232
   0.0000000000000000    2.2858941561442232    2.2858941561442232
  -2.2858941561442232    2.2858941561442232    0.0000000000000000
Na F
1 1
direct
   0.0000000000000000    0.0000000000000000    0.0000000000000000 Na
   0.4999999615946625    0.5000000384053375    0.4999999615946625 F
