&CONTROL
  calculation = 'scf',
  disk_io = 'low',
  outdir = 'out/',
  prefix = 'mp-1985',
  pseudo_dir = '/usr/scratch4/magr4985/MG/devEb/pseudo/SG15',
/
&SYSTEM
  celldm(1) = 12.189727126448226,
  celldm(3) = 0.37564997021384156,
  degauss = 0.0004593661607577953,
  ecutwfc = 65,
  force_symmorphic = .FALSE.,
  ibrav = 4,
  nbnd = 64,
  nosym = .FALSE.,
  occupations = 'smearing',
  smearing = 'gaussian',
  nat = 14,
  ntyp = 2,
/
&ELECTRONS
  conv_thr = 1d-10,
  diago_full_acc = .TRUE.,
  diago_thr_init = 5d-06,
  diagonalization = 'david',
/
&IONS
/
&CELL
/
ATOMIC_SPECIES
  C  12.0107 C.upf
  N  14.0067 N.upf
ATOMIC_POSITIONS crystal
  C 0.59490505 0.82165999 0.75000006
  C 0.17834001 0.77324498 0.75000006
  C 0.22675502 0.40509495 0.75000006
  C 0.40509503 0.17834001 0.25000002
  C 0.82166006 0.22675502 0.25000002
  C 0.77324506 0.59490505 0.25000002
  N 0.70342005 0.67011305 0.75000006
  N 0.32988703 0.03330700 0.75000006
  N 0.96669307 0.29658002 0.75000006
  N 0.29658002 0.32988695 0.25000002
  N 0.67011305 0.96669300 0.25000002
  N 0.03330700 0.70341998 0.25000002
  N 0.33333336 0.66666664 0.75000006
  N 0.66666672 0.33333336 0.25000002
K_POINTS automatic
  4 4 12 0 0 0

