&CONTROL
  calculation = 'scf',
  disk_io = 'low',
  outdir = 'out/',
  prefix = 'mp-1143',
  pseudo_dir = '/usr/scratch4/magr4826/Promotion/Python/Code/devEb/pseudo/SG15',
/
&SYSTEM
  celldm(1) = 9.784916074465148,
  celldm(4) = 0.5694286086460184,
  degauss = 0.0004593661607577953,
  ecutwfc = 75,
  force_symmorphic = .FALSE.,
  ibrav = 5,
  nbnd = 80,
  nosym = .FALSE.,
  occupations = 'smearing',
  smearing = 'gaussian',
  nat = 10,
  ntyp = 2,
/
&ELECTRONS
  conv_thr = 1d-10,
  diago_full_acc = .TRUE.,
  diago_thr_init = 5d-06,
  diagonalization = 'paro',
/
&IONS
/
&CELL
/
ATOMIC_SPECIES
  Al  26.9815 Al.upf
  O  15.9994 O.upf
ATOMIC_POSITIONS crystal
  Al 0.64790405 0.64790405 0.64790397
  Al 0.85209607 0.85209599 0.85209599
  Al 0.14790409 0.14790401 0.14790401
  Al 0.35209603 0.35209603 0.35209603
  O 0.44385453 0.05614558 0.74999998
  O 0.94385457 0.25000002 0.55614547
  O 0.05614558 0.75000006 0.44385446
  O 0.75000006 0.44385453 0.05614550
  O 0.25000002 0.55614554 0.94385450
  O 0.55614554 0.94385450 0.25000002
K_POINTS automatic
  8 8 8 0 0 0

