Ga1 As1
1.0
  -2.8750908287873402    0.0000000000000000    2.8750908287873402
   0.0000000000000000    2.8750908287873402    2.8750908287873402
  -2.8750908287873402    2.8750908287873402    0.0000000000000000
Ga As
1 1
direct
   0.0000000000000000    0.0000000000000000    0.0000000000000000 Ga
   0.2500000192026688    0.2500000960133439    0.2499999423919936 As
