Ba1 Se1
1.0
  -3.3336216302950898    0.0000000000000000    3.3336216302950898
   0.0000000000000000    3.3336216302950898    3.3336216302950898
  -3.3336216302950898    3.3336216302950898    0.0000000000000000
Ba Se
1 1
direct
   0.0000000000000000    0.0000000000000000    0.0000000000000000 Ba
   0.4999999615946624    0.5000000384053376    0.4999999615946624 Se
