&inputpp
outdir = 'out/'
prefix = 'mp-682'
seedname = 'mp-682'
spin_component = 'none'
write_mmn = .true.
write_amn = .true.
write_unk = False
scdm_proj = .true.
scdm_entanglement = 'isolated'
/