&inputpp
    prefix = 'mp-2160'
    outdir='out/',
    plot_num=10,
    emin = 8.19503366442116,
    emax = 9.39503366442116,
    delta_e = 0.1,
/
&plot
    iflag=3,
    output_format=6,
    fileout='ldos.cube',
/
