&inputpp
    prefix = 'mp-23291'
    outdir='out/',
    plot_num=10,
    emin = 8.684693048129708,
    emax = 9.884693048129707,
    delta_e = 0.1,
/
&plot
    iflag=3,
    output_format=6,
    fileout='ldos.cube',
/
