&inputpp
    prefix = 'mp-2605'
    outdir='out/',
    plot_num=10,
    emin = 11.425752303390437,
    emax = 12.425752303390437,
    delta_e = 0.1,
/
&plot
    iflag=3,
    output_format=6,
    fileout='ldos.cube',
/
