&inputpp
    prefix = 'mp-995214'
    outdir='out/',
    plot_num=10,
    emin = 5.304560272496913,
    emax = 6.304560272496913,
    delta_e = 0.1,
/
&plot
    iflag=3,
    output_format=6,
    fileout='ldos.cube',
/
