C6 N8
1.0
   6.4505257713653075    0.0000000000000000    0.0000000000000000
  -3.2252628856826537    5.5863191857685672    0.0000000000000000
   0.0000000000000000    0.0000000000000000    2.4231398138769951
C N
6 8
direct
   0.5949050456950545    0.8216599863015842    0.7500000576080064 C
   0.1783400136984157    0.7732449825827954    0.7500000576080064 C
   0.2267550174172046    0.4050949543049452    0.7500000576080064 C
   0.4050950311156203    0.1783400136984157    0.2500000192026688 C
   0.8216600631122591    0.2267550174172047    0.2500000192026688 C
   0.7732450593934703    0.5949050456950548    0.2500000192026688 C
   0.7034200540301652    0.6701130514718320    0.7500000576080064 N
   0.3298870253388432    0.0333070025583332    0.7500000576080064 N
   0.9666930742523416    0.2965800227805100    0.7500000576080064 N
   0.2965800227805099    0.3298869485281680    0.2500000192026688 N
   0.6701130514718318    0.9666929974416668    0.2500000192026688 N
   0.0333070025583332    0.7034199772194900    0.2500000192026688 N
   0.3333333589368916    0.6666666410631084    0.7500000576080064 N
   0.6666667178737835    0.3333333589368918    0.2500000192026688 N
