&CONTROL
  calculation = 'nscf',
  disk_io = 'low',
  outdir = 'out/',
  prefix = 'mp-1138',
  pseudo_dir = '/usr/scratch4/magr4826/Promotion/Python/Code/devEb/pseudo/SG15',
/
&SYSTEM
  celldm(1) = 7.7165584034387456,
  degauss = 0.0004593661607577953,
  ecutwfc = 130,
  force_symmorphic = .FALSE.,
  ibrav = 2,
  nbnd = 10,
  nosym = .FALSE.,
  occupations = 'smearing',
  smearing = 'gaussian',
  nat = 2,
  ntyp = 2,
/
&ELECTRONS
  conv_thr = 1d-10,
  diago_full_acc = .TRUE.,
  diago_thr_init = 5d-06,
  diagonalization = 'david',
/
&IONS
/
&CELL
/
ATOMIC_SPECIES
  F  18.9984 F.upf
  Li  6.9410 Li.upf
ATOMIC_POSITIONS crystal
  Li 0.00000000 0.00000000 0.00000000
  F 0.49999996 0.50000004 0.49999996
K_POINTS automatic
  12 12 12 0 0 0

