Tl1 Br1
1.0
   3.9999063427644930    0.0000000000000000    0.0000000000000000
   0.0000000000000000    3.9999063427644930    0.0000000000000000
   0.0000000000000000    0.0000000000000000    3.9999063427644930
Tl Br
1 1
direct
   0.0000000000000000    0.0000000000000000    0.0000000000000000 Tl
   0.5000000384053376    0.5000000384053376    0.5000000384053376 Br
