&inputpp
    prefix = 'mp-1415'
    outdir='out/',
    plot_num=10,
    emin = 7.943501284558302,
    emax = 8.943501284558302,
    delta_e = 0.1,
/
&plot
    iflag=3,
    output_format=6,
    fileout='ldos.cube',
/
