Rb1 I1
1.0
  -3.6911670815285205    0.0000000000000000    3.6911670815285205
   0.0000000000000000    3.6911670815285205    3.6911670815285205
  -3.6911670815285205    3.6911670815285205    0.0000000000000000
Rb I
1 1
direct
   0.0000000000000000    0.0000000000000000    0.0000000000000000 Rb
   0.4999999615946624    0.5000000384053376    0.4999999615946624 I
