&inputpp
    prefix = 'mp-1672'
    outdir='out/',
    plot_num=10,
    emin = 8.356426470270444,
    emax = 9.556426470270443,
    delta_e = 0.1,
/
&plot
    iflag=3,
    output_format=6,
    fileout='ldos.cube',
/
