&inputpp
    prefix = 'mp-28077'
    outdir='out/',
    plot_num=10,
    emin = 7.667646044928979,
    emax = 8.867646044928978,
    delta_e = 0.1,
/
&plot
    iflag=3,
    output_format=6,
    fileout='ldos.cube',
/
