&inputpp
    prefix = 'mp-22898'
    outdir='out/',
    plot_num=10,
    emin = 6.688816900780531,
    emax = 7.688816900780531,
    delta_e = 0.1,
/
&plot
    iflag=3,
    output_format=6,
    fileout='ldos.cube',
/
