C2
1.0
  -1.7803724177935543    0.0000000000000000    1.7803724177935543
   0.0000000000000000    1.7803724177935543    1.7803724177935543
  -1.7803724177935543    1.7803724177935543    0.0000000000000000
C
2
direct
   0.0000000000000000    0.0000000768106752    0.9999999231893248 C
   0.7499999807973312    0.7500000576080064    0.7499999807973311 C
