num_wann = 36
exclude_bands = 1-64 101-200
num_iter = 500

auto_projections =.true.

begin atoms_frac
H 0.5087350390762789 0.6552250503282746 0.6807300522873311
H 0.00873500067094135 0.8447750648877381 0.8192700629286819
H 0.4912650377343963 0.3447750264824006 0.18073001388199342
H 0.9912650761397339 0.155225011922937 0.3192700245233443
H 0.4912650377343963 0.3447750264824006 0.3192700245233443
H 0.9912650761397339 0.155225011922937 0.18073001388199347
H 0.5087350390762789 0.6552250503282746 0.8192700629286819
H 0.00873500067094135 0.8447750648877381 0.6807300522873311
H 0.6782720520985303 0.5953040457257023 0.7500000576080065
H 0.17827201369319262 0.9046960694903106 0.7500000576080065
H 0.3217280247121449 0.404696031084973 0.25000001920266884
H 0.8217280631174826 0.09530400732036465 0.25000001920266884
H 0.5240280402509446 0.3784110290660045 0.6756350518959809
H 0.024028001845606838 0.12158900933933313 0.8243650633200321
H 0.47597203655973064 0.6215890477446707 0.1756350134906432
H 0.9759720749650681 0.8784110674713421 0.32436502491469454
H 0.47597203655973064 0.6215890477446707 0.32436502491469454
H 0.9759720749650681 0.8784110674713421 0.17563501349064325
H 0.5240280402509446 0.3784110290660045 0.8243650633200322
H 0.024028001845606838 0.12158900933933313 0.6756350518959808
H 0.34586902656643137 0.44386203409333985 0.7500000576080065
H 0.8458690649717691 0.056138004311997704 0.7500000576080065
H 0.6541310502442438 0.5561380427173354 0.25000001920266884
H 0.15413101183890615 0.9438620724986775 0.25000001920266884
Pb 0.5000000384053376 0.0 2.0434132291592682e-17
Pb 0.0 0.5000000384053376 0.5000000384053377
Pb 0.5000000384053376 0.0 0.5000000384053377
Pb 0.0 0.5000000384053376 2.2236724469963005e-17
C 0.4810650369509275 0.4377480336237195 0.7500000576080065
C 0.9810650753562652 0.06225200478161813 0.7500000576080065
C 0.5189350398597476 0.5622520431869557 0.25000001920266884
C 0.01893500145441 0.9377480720290571 0.25000001920266884
Br 0.4669710358683578 0.018115001391425373 0.7500000576080065
Br 0.9669710742736956 0.4818850370139122 0.7500000576080065
Br 0.5330290409423172 0.9818850754192497 0.2500000192026689
Br 0.03302900253697973 0.518115039796763 0.25000001920266884
Br 0.7957760611240919 0.7889530606000126 0.970640074555514
Br 0.29577602271875425 0.7110470546160002 0.529360040660499
Br 0.20422401568658327 0.21104701621066255 0.4706400361501762
Br 0.7042240540919209 0.28895302219467506 0.02936000225516141
Br 0.20422401568658327 0.21104701621066255 0.029360002255161388
Br 0.7042240540919209 0.28895302219467506 0.4706400361501762
Br 0.7957760611240919 0.7889530606000126 0.5293600406604991
Br 0.29577602271875425 0.7110470546160002 0.970640074555514
N 0.5491350421794302 0.596250045798365 0.7500000576080065
N 0.04913500377409262 0.9037500694176478 0.7500000576080065
N 0.45086503463124505 0.40375003101231016 0.25000001920266884
N 0.9508650730365826 0.09625000739302743 0.25000001920266884
end atoms_frac

geninterp = true
geninterp_alsofirstder = true

begin unit_cell_cart
8.064590 0.000000 0.000000
0.000000 8.776006 0.000000
0.000000 0.000000 12.083062
end unit_cell_cart

mp_grid : 4 4 4

begin kpoints
  0.00000000  0.00000000  0.00000000
  0.00000000  0.00000000  0.25000000
  0.00000000  0.00000000  0.50000000
  0.00000000  0.00000000  0.75000000
  0.00000000  0.25000000  0.00000000
  0.00000000  0.25000000  0.25000000
  0.00000000  0.25000000  0.50000000
  0.00000000  0.25000000  0.75000000
  0.00000000  0.50000000  0.00000000
  0.00000000  0.50000000  0.25000000
  0.00000000  0.50000000  0.50000000
  0.00000000  0.50000000  0.75000000
  0.00000000  0.75000000  0.00000000
  0.00000000  0.75000000  0.25000000
  0.00000000  0.75000000  0.50000000
  0.00000000  0.75000000  0.75000000
  0.25000000  0.00000000  0.00000000
  0.25000000  0.00000000  0.25000000
  0.25000000  0.00000000  0.50000000
  0.25000000  0.00000000  0.75000000
  0.25000000  0.25000000  0.00000000
  0.25000000  0.25000000  0.25000000
  0.25000000  0.25000000  0.50000000
  0.25000000  0.25000000  0.75000000
  0.25000000  0.50000000  0.00000000
  0.25000000  0.50000000  0.25000000
  0.25000000  0.50000000  0.50000000
  0.25000000  0.50000000  0.75000000
  0.25000000  0.75000000  0.00000000
  0.25000000  0.75000000  0.25000000
  0.25000000  0.75000000  0.50000000
  0.25000000  0.75000000  0.75000000
  0.50000000  0.00000000  0.00000000
  0.50000000  0.00000000  0.25000000
  0.50000000  0.00000000  0.50000000
  0.50000000  0.00000000  0.75000000
  0.50000000  0.25000000  0.00000000
  0.50000000  0.25000000  0.25000000
  0.50000000  0.25000000  0.50000000
  0.50000000  0.25000000  0.75000000
  0.50000000  0.50000000  0.00000000
  0.50000000  0.50000000  0.25000000
  0.50000000  0.50000000  0.50000000
  0.50000000  0.50000000  0.75000000
  0.50000000  0.75000000  0.00000000
  0.50000000  0.75000000  0.25000000
  0.50000000  0.75000000  0.50000000
  0.50000000  0.75000000  0.75000000
  0.75000000  0.00000000  0.00000000
  0.75000000  0.00000000  0.25000000
  0.75000000  0.00000000  0.50000000
  0.75000000  0.00000000  0.75000000
  0.75000000  0.25000000  0.00000000
  0.75000000  0.25000000  0.25000000
  0.75000000  0.25000000  0.50000000
  0.75000000  0.25000000  0.75000000
  0.75000000  0.50000000  0.00000000
  0.75000000  0.50000000  0.25000000
  0.75000000  0.50000000  0.50000000
  0.75000000  0.50000000  0.75000000
  0.75000000  0.75000000  0.00000000
  0.75000000  0.75000000  0.25000000
  0.75000000  0.75000000  0.50000000
  0.75000000  0.75000000  0.75000000
end kpoints

