&CONTROL
  calculation = 'nscf',
  disk_io = 'low',
  outdir = 'out/',
  prefix = 'mp-732337',
  pseudo_dir = '/usr/scratch4/magr4985/MG/devEb/pseudo/SG15',
/
&SYSTEM
  celldm(1) = 15.239867199959688,
  celldm(2) = 1.0882147650141216,
  celldm(3) = 1.4982859019136863,
  degauss = 0.0004593661607577953,
  ecutwfc = 65,
  force_symmorphic = .FALSE.,
  ibrav = 8,
  nbnd = 200,
  nosym = .TRUE.,
  occupations = 'smearing',
  smearing = 'gaussian',
  nat = 48,
  ntyp = 5,
/
&ELECTRONS
  conv_thr = 1d-10,
  diago_full_acc = .TRUE.,
  diago_thr_init = 5d-06,
  diagonalization = 'david',
/
&IONS
/
&CELL
/
ATOMIC_SPECIES
  Br  79.9040 Br.upf
  C  12.0107 C.upf
  H  1.0079 H.upf
  N  14.0067 N.upf
  Pb  207.2000 Pb.upf
ATOMIC_POSITIONS crystal
  H 0.50873504 0.65522505 0.68073005
  H 0.00873500 0.84477506 0.81927006
  H 0.49126504 0.34477503 0.18073001
  H 0.99126508 0.15522501 0.31927002
  H 0.49126504 0.34477503 0.31927002
  H 0.99126508 0.15522501 0.18073001
  H 0.50873504 0.65522505 0.81927006
  H 0.00873500 0.84477506 0.68073005
  H 0.67827205 0.59530405 0.75000006
  H 0.17827201 0.90469607 0.75000006
  H 0.32172802 0.40469603 0.25000002
  H 0.82172806 0.09530401 0.25000002
  H 0.52402804 0.37841103 0.67563505
  H 0.02402800 0.12158901 0.82436506
  H 0.47597204 0.62158905 0.17563501
  H 0.97597207 0.87841107 0.32436502
  H 0.47597204 0.62158905 0.32436502
  H 0.97597207 0.87841107 0.17563501
  H 0.52402804 0.37841103 0.82436506
  H 0.02402800 0.12158901 0.67563505
  H 0.34586903 0.44386203 0.75000006
  H 0.84586906 0.05613800 0.75000006
  H 0.65413105 0.55613804 0.25000002
  H 0.15413101 0.94386207 0.25000002
  Pb 0.50000004 0.00000000 0.00000000
  Pb 0.00000000 0.50000004 0.50000004
  Pb 0.50000004 0.00000000 0.50000004
  Pb 0.00000000 0.50000004 0.00000000
  C 0.48106504 0.43774803 0.75000006
  C 0.98106508 0.06225200 0.75000006
  C 0.51893504 0.56225204 0.25000002
  C 0.01893500 0.93774807 0.25000002
  Br 0.46697104 0.01811500 0.75000006
  Br 0.96697107 0.48188504 0.75000006
  Br 0.53302904 0.98188508 0.25000002
  Br 0.03302900 0.51811504 0.25000002
  Br 0.79577606 0.78895306 0.97064007
  Br 0.29577602 0.71104705 0.52936004
  Br 0.20422402 0.21104702 0.47064004
  Br 0.70422405 0.28895302 0.02936000
  Br 0.20422402 0.21104702 0.02936000
  Br 0.70422405 0.28895302 0.47064004
  Br 0.79577606 0.78895306 0.52936004
  Br 0.29577602 0.71104705 0.97064007
  N 0.54913504 0.59625005 0.75000006
  N 0.04913500 0.90375007 0.75000006
  N 0.45086503 0.40375003 0.25000002
  N 0.95086507 0.09625001 0.25000002
K_POINTS crystal
64
  0.00000000  0.00000000  0.00000000  1.562500e-02
  0.00000000  0.00000000  0.25000000  1.562500e-02
  0.00000000  0.00000000  0.50000000  1.562500e-02
  0.00000000  0.00000000  0.75000000  1.562500e-02
  0.00000000  0.25000000  0.00000000  1.562500e-02
  0.00000000  0.25000000  0.25000000  1.562500e-02
  0.00000000  0.25000000  0.50000000  1.562500e-02
  0.00000000  0.25000000  0.75000000  1.562500e-02
  0.00000000  0.50000000  0.00000000  1.562500e-02
  0.00000000  0.50000000  0.25000000  1.562500e-02
  0.00000000  0.50000000  0.50000000  1.562500e-02
  0.00000000  0.50000000  0.75000000  1.562500e-02
  0.00000000  0.75000000  0.00000000  1.562500e-02
  0.00000000  0.75000000  0.25000000  1.562500e-02
  0.00000000  0.75000000  0.50000000  1.562500e-02
  0.00000000  0.75000000  0.75000000  1.562500e-02
  0.25000000  0.00000000  0.00000000  1.562500e-02
  0.25000000  0.00000000  0.25000000  1.562500e-02
  0.25000000  0.00000000  0.50000000  1.562500e-02
  0.25000000  0.00000000  0.75000000  1.562500e-02
  0.25000000  0.25000000  0.00000000  1.562500e-02
  0.25000000  0.25000000  0.25000000  1.562500e-02
  0.25000000  0.25000000  0.50000000  1.562500e-02
  0.25000000  0.25000000  0.75000000  1.562500e-02
  0.25000000  0.50000000  0.00000000  1.562500e-02
  0.25000000  0.50000000  0.25000000  1.562500e-02
  0.25000000  0.50000000  0.50000000  1.562500e-02
  0.25000000  0.50000000  0.75000000  1.562500e-02
  0.25000000  0.75000000  0.00000000  1.562500e-02
  0.25000000  0.75000000  0.25000000  1.562500e-02
  0.25000000  0.75000000  0.50000000  1.562500e-02
  0.25000000  0.75000000  0.75000000  1.562500e-02
  0.50000000  0.00000000  0.00000000  1.562500e-02
  0.50000000  0.00000000  0.25000000  1.562500e-02
  0.50000000  0.00000000  0.50000000  1.562500e-02
  0.50000000  0.00000000  0.75000000  1.562500e-02
  0.50000000  0.25000000  0.00000000  1.562500e-02
  0.50000000  0.25000000  0.25000000  1.562500e-02
  0.50000000  0.25000000  0.50000000  1.562500e-02
  0.50000000  0.25000000  0.75000000  1.562500e-02
  0.50000000  0.50000000  0.00000000  1.562500e-02
  0.50000000  0.50000000  0.25000000  1.562500e-02
  0.50000000  0.50000000  0.50000000  1.562500e-02
  0.50000000  0.50000000  0.75000000  1.562500e-02
  0.50000000  0.75000000  0.00000000  1.562500e-02
  0.50000000  0.75000000  0.25000000  1.562500e-02
  0.50000000  0.75000000  0.50000000  1.562500e-02
  0.50000000  0.75000000  0.75000000  1.562500e-02
  0.75000000  0.00000000  0.00000000  1.562500e-02
  0.75000000  0.00000000  0.25000000  1.562500e-02
  0.75000000  0.00000000  0.50000000  1.562500e-02
  0.75000000  0.00000000  0.75000000  1.562500e-02
  0.75000000  0.25000000  0.00000000  1.562500e-02
  0.75000000  0.25000000  0.25000000  1.562500e-02
  0.75000000  0.25000000  0.50000000  1.562500e-02
  0.75000000  0.25000000  0.75000000  1.562500e-02
  0.75000000  0.50000000  0.00000000  1.562500e-02
  0.75000000  0.50000000  0.25000000  1.562500e-02
  0.75000000  0.50000000  0.50000000  1.562500e-02
  0.75000000  0.50000000  0.75000000  1.562500e-02
  0.75000000  0.75000000  0.00000000  1.562500e-02
  0.75000000  0.75000000  0.25000000  1.562500e-02
  0.75000000  0.75000000  0.50000000  1.562500e-02
  0.75000000  0.75000000  0.75000000  1.562500e-02


