Ar1
1.0
  -2.6815797176839316    0.0000000000000000    2.6815797176839316
   0.0000000000000000    2.6815797176839316    2.6815797176839316
  -2.6815797176839316    2.6815797176839316    0.0000000000000000
Ar
1
direct
   0.0000000000000000    0.0000000000000000    0.0000000000000000 Ar
