num_wann = 8
exclude_bands = 1-12 21-40
num_iter = 500

auto_projections =.true.

begin atoms_frac
In 0.3934463770315484 0.3934463002208736 0.2500000192026689
In 0.6065537765898017 0.6065537765898019 0.7500000576080063
Br 0.15127385843011543 0.15127378161944047 0.25000001920266884
Br 0.8487262951912348 0.848726295191235 0.7500000576080063
end atoms_frac

geninterp = true
geninterp_alsofirstder = true

begin unit_cell_cart
2.294375 6.159627 0.000000
-2.294375 6.159627 0.000000
0.000000 0.000000 4.602419
end unit_cell_cart

mp_grid : 8 8 12

begin kpoints
  0.00000000  0.00000000  0.00000000
  0.00000000  0.00000000  0.08333333
  0.00000000  0.00000000  0.16666667
  0.00000000  0.00000000  0.25000000
  0.00000000  0.00000000  0.33333333
  0.00000000  0.00000000  0.41666667
  0.00000000  0.00000000  0.50000000
  0.00000000  0.00000000  0.58333333
  0.00000000  0.00000000  0.66666667
  0.00000000  0.00000000  0.75000000
  0.00000000  0.00000000  0.83333333
  0.00000000  0.00000000  0.91666667
  0.00000000  0.12500000  0.00000000
  0.00000000  0.12500000  0.08333333
  0.00000000  0.12500000  0.16666667
  0.00000000  0.12500000  0.25000000
  0.00000000  0.12500000  0.33333333
  0.00000000  0.12500000  0.41666667
  0.00000000  0.12500000  0.50000000
  0.00000000  0.12500000  0.58333333
  0.00000000  0.12500000  0.66666667
  0.00000000  0.12500000  0.75000000
  0.00000000  0.12500000  0.83333333
  0.00000000  0.12500000  0.91666667
  0.00000000  0.25000000  0.00000000
  0.00000000  0.25000000  0.08333333
  0.00000000  0.25000000  0.16666667
  0.00000000  0.25000000  0.25000000
  0.00000000  0.25000000  0.33333333
  0.00000000  0.25000000  0.41666667
  0.00000000  0.25000000  0.50000000
  0.00000000  0.25000000  0.58333333
  0.00000000  0.25000000  0.66666667
  0.00000000  0.25000000  0.75000000
  0.00000000  0.25000000  0.83333333
  0.00000000  0.25000000  0.91666667
  0.00000000  0.37500000  0.00000000
  0.00000000  0.37500000  0.08333333
  0.00000000  0.37500000  0.16666667
  0.00000000  0.37500000  0.25000000
  0.00000000  0.37500000  0.33333333
  0.00000000  0.37500000  0.41666667
  0.00000000  0.37500000  0.50000000
  0.00000000  0.37500000  0.58333333
  0.00000000  0.37500000  0.66666667
  0.00000000  0.37500000  0.75000000
  0.00000000  0.37500000  0.83333333
  0.00000000  0.37500000  0.91666667
  0.00000000  0.50000000  0.00000000
  0.00000000  0.50000000  0.08333333
  0.00000000  0.50000000  0.16666667
  0.00000000  0.50000000  0.25000000
  0.00000000  0.50000000  0.33333333
  0.00000000  0.50000000  0.41666667
  0.00000000  0.50000000  0.50000000
  0.00000000  0.50000000  0.58333333
  0.00000000  0.50000000  0.66666667
  0.00000000  0.50000000  0.75000000
  0.00000000  0.50000000  0.83333333
  0.00000000  0.50000000  0.91666667
  0.00000000  0.62500000  0.00000000
  0.00000000  0.62500000  0.08333333
  0.00000000  0.62500000  0.16666667
  0.00000000  0.62500000  0.25000000
  0.00000000  0.62500000  0.33333333
  0.00000000  0.62500000  0.41666667
  0.00000000  0.62500000  0.50000000
  0.00000000  0.62500000  0.58333333
  0.00000000  0.62500000  0.66666667
  0.00000000  0.62500000  0.75000000
  0.00000000  0.62500000  0.83333333
  0.00000000  0.62500000  0.91666667
  0.00000000  0.75000000  0.00000000
  0.00000000  0.75000000  0.08333333
  0.00000000  0.75000000  0.16666667
  0.00000000  0.75000000  0.25000000
  0.00000000  0.75000000  0.33333333
  0.00000000  0.75000000  0.41666667
  0.00000000  0.75000000  0.50000000
  0.00000000  0.75000000  0.58333333
  0.00000000  0.75000000  0.66666667
  0.00000000  0.75000000  0.75000000
  0.00000000  0.75000000  0.83333333
  0.00000000  0.75000000  0.91666667
  0.00000000  0.87500000  0.00000000
  0.00000000  0.87500000  0.08333333
  0.00000000  0.87500000  0.16666667
  0.00000000  0.87500000  0.25000000
  0.00000000  0.87500000  0.33333333
  0.00000000  0.87500000  0.41666667
  0.00000000  0.87500000  0.50000000
  0.00000000  0.87500000  0.58333333
  0.00000000  0.87500000  0.66666667
  0.00000000  0.87500000  0.75000000
  0.00000000  0.87500000  0.83333333
  0.00000000  0.87500000  0.91666667
  0.12500000  0.00000000  0.00000000
  0.12500000  0.00000000  0.08333333
  0.12500000  0.00000000  0.16666667
  0.12500000  0.00000000  0.25000000
  0.12500000  0.00000000  0.33333333
  0.12500000  0.00000000  0.41666667
  0.12500000  0.00000000  0.50000000
  0.12500000  0.00000000  0.58333333
  0.12500000  0.00000000  0.66666667
  0.12500000  0.00000000  0.75000000
  0.12500000  0.00000000  0.83333333
  0.12500000  0.00000000  0.91666667
  0.12500000  0.12500000  0.00000000
  0.12500000  0.12500000  0.08333333
  0.12500000  0.12500000  0.16666667
  0.12500000  0.12500000  0.25000000
  0.12500000  0.12500000  0.33333333
  0.12500000  0.12500000  0.41666667
  0.12500000  0.12500000  0.50000000
  0.12500000  0.12500000  0.58333333
  0.12500000  0.12500000  0.66666667
  0.12500000  0.12500000  0.75000000
  0.12500000  0.12500000  0.83333333
  0.12500000  0.12500000  0.91666667
  0.12500000  0.25000000  0.00000000
  0.12500000  0.25000000  0.08333333
  0.12500000  0.25000000  0.16666667
  0.12500000  0.25000000  0.25000000
  0.12500000  0.25000000  0.33333333
  0.12500000  0.25000000  0.41666667
  0.12500000  0.25000000  0.50000000
  0.12500000  0.25000000  0.58333333
  0.12500000  0.25000000  0.66666667
  0.12500000  0.25000000  0.75000000
  0.12500000  0.25000000  0.83333333
  0.12500000  0.25000000  0.91666667
  0.12500000  0.37500000  0.00000000
  0.12500000  0.37500000  0.08333333
  0.12500000  0.37500000  0.16666667
  0.12500000  0.37500000  0.25000000
  0.12500000  0.37500000  0.33333333
  0.12500000  0.37500000  0.41666667
  0.12500000  0.37500000  0.50000000
  0.12500000  0.37500000  0.58333333
  0.12500000  0.37500000  0.66666667
  0.12500000  0.37500000  0.75000000
  0.12500000  0.37500000  0.83333333
  0.12500000  0.37500000  0.91666667
  0.12500000  0.50000000  0.00000000
  0.12500000  0.50000000  0.08333333
  0.12500000  0.50000000  0.16666667
  0.12500000  0.50000000  0.25000000
  0.12500000  0.50000000  0.33333333
  0.12500000  0.50000000  0.41666667
  0.12500000  0.50000000  0.50000000
  0.12500000  0.50000000  0.58333333
  0.12500000  0.50000000  0.66666667
  0.12500000  0.50000000  0.75000000
  0.12500000  0.50000000  0.83333333
  0.12500000  0.50000000  0.91666667
  0.12500000  0.62500000  0.00000000
  0.12500000  0.62500000  0.08333333
  0.12500000  0.62500000  0.16666667
  0.12500000  0.62500000  0.25000000
  0.12500000  0.62500000  0.33333333
  0.12500000  0.62500000  0.41666667
  0.12500000  0.62500000  0.50000000
  0.12500000  0.62500000  0.58333333
  0.12500000  0.62500000  0.66666667
  0.12500000  0.62500000  0.75000000
  0.12500000  0.62500000  0.83333333
  0.12500000  0.62500000  0.91666667
  0.12500000  0.75000000  0.00000000
  0.12500000  0.75000000  0.08333333
  0.12500000  0.75000000  0.16666667
  0.12500000  0.75000000  0.25000000
  0.12500000  0.75000000  0.33333333
  0.12500000  0.75000000  0.41666667
  0.12500000  0.75000000  0.50000000
  0.12500000  0.75000000  0.58333333
  0.12500000  0.75000000  0.66666667
  0.12500000  0.75000000  0.75000000
  0.12500000  0.75000000  0.83333333
  0.12500000  0.75000000  0.91666667
  0.12500000  0.87500000  0.00000000
  0.12500000  0.87500000  0.08333333
  0.12500000  0.87500000  0.16666667
  0.12500000  0.87500000  0.25000000
  0.12500000  0.87500000  0.33333333
  0.12500000  0.87500000  0.41666667
  0.12500000  0.87500000  0.50000000
  0.12500000  0.87500000  0.58333333
  0.12500000  0.87500000  0.66666667
  0.12500000  0.87500000  0.75000000
  0.12500000  0.87500000  0.83333333
  0.12500000  0.87500000  0.91666667
  0.25000000  0.00000000  0.00000000
  0.25000000  0.00000000  0.08333333
  0.25000000  0.00000000  0.16666667
  0.25000000  0.00000000  0.25000000
  0.25000000  0.00000000  0.33333333
  0.25000000  0.00000000  0.41666667
  0.25000000  0.00000000  0.50000000
  0.25000000  0.00000000  0.58333333
  0.25000000  0.00000000  0.66666667
  0.25000000  0.00000000  0.75000000
  0.25000000  0.00000000  0.83333333
  0.25000000  0.00000000  0.91666667
  0.25000000  0.12500000  0.00000000
  0.25000000  0.12500000  0.08333333
  0.25000000  0.12500000  0.16666667
  0.25000000  0.12500000  0.25000000
  0.25000000  0.12500000  0.33333333
  0.25000000  0.12500000  0.41666667
  0.25000000  0.12500000  0.50000000
  0.25000000  0.12500000  0.58333333
  0.25000000  0.12500000  0.66666667
  0.25000000  0.12500000  0.75000000
  0.25000000  0.12500000  0.83333333
  0.25000000  0.12500000  0.91666667
  0.25000000  0.25000000  0.00000000
  0.25000000  0.25000000  0.08333333
  0.25000000  0.25000000  0.16666667
  0.25000000  0.25000000  0.25000000
  0.25000000  0.25000000  0.33333333
  0.25000000  0.25000000  0.41666667
  0.25000000  0.25000000  0.50000000
  0.25000000  0.25000000  0.58333333
  0.25000000  0.25000000  0.66666667
  0.25000000  0.25000000  0.75000000
  0.25000000  0.25000000  0.83333333
  0.25000000  0.25000000  0.91666667
  0.25000000  0.37500000  0.00000000
  0.25000000  0.37500000  0.08333333
  0.25000000  0.37500000  0.16666667
  0.25000000  0.37500000  0.25000000
  0.25000000  0.37500000  0.33333333
  0.25000000  0.37500000  0.41666667
  0.25000000  0.37500000  0.50000000
  0.25000000  0.37500000  0.58333333
  0.25000000  0.37500000  0.66666667
  0.25000000  0.37500000  0.75000000
  0.25000000  0.37500000  0.83333333
  0.25000000  0.37500000  0.91666667
  0.25000000  0.50000000  0.00000000
  0.25000000  0.50000000  0.08333333
  0.25000000  0.50000000  0.16666667
  0.25000000  0.50000000  0.25000000
  0.25000000  0.50000000  0.33333333
  0.25000000  0.50000000  0.41666667
  0.25000000  0.50000000  0.50000000
  0.25000000  0.50000000  0.58333333
  0.25000000  0.50000000  0.66666667
  0.25000000  0.50000000  0.75000000
  0.25000000  0.50000000  0.83333333
  0.25000000  0.50000000  0.91666667
  0.25000000  0.62500000  0.00000000
  0.25000000  0.62500000  0.08333333
  0.25000000  0.62500000  0.16666667
  0.25000000  0.62500000  0.25000000
  0.25000000  0.62500000  0.33333333
  0.25000000  0.62500000  0.41666667
  0.25000000  0.62500000  0.50000000
  0.25000000  0.62500000  0.58333333
  0.25000000  0.62500000  0.66666667
  0.25000000  0.62500000  0.75000000
  0.25000000  0.62500000  0.83333333
  0.25000000  0.62500000  0.91666667
  0.25000000  0.75000000  0.00000000
  0.25000000  0.75000000  0.08333333
  0.25000000  0.75000000  0.16666667
  0.25000000  0.75000000  0.25000000
  0.25000000  0.75000000  0.33333333
  0.25000000  0.75000000  0.41666667
  0.25000000  0.75000000  0.50000000
  0.25000000  0.75000000  0.58333333
  0.25000000  0.75000000  0.66666667
  0.25000000  0.75000000  0.75000000
  0.25000000  0.75000000  0.83333333
  0.25000000  0.75000000  0.91666667
  0.25000000  0.87500000  0.00000000
  0.25000000  0.87500000  0.08333333
  0.25000000  0.87500000  0.16666667
  0.25000000  0.87500000  0.25000000
  0.25000000  0.87500000  0.33333333
  0.25000000  0.87500000  0.41666667
  0.25000000  0.87500000  0.50000000
  0.25000000  0.87500000  0.58333333
  0.25000000  0.87500000  0.66666667
  0.25000000  0.87500000  0.75000000
  0.25000000  0.87500000  0.83333333
  0.25000000  0.87500000  0.91666667
  0.37500000  0.00000000  0.00000000
  0.37500000  0.00000000  0.08333333
  0.37500000  0.00000000  0.16666667
  0.37500000  0.00000000  0.25000000
  0.37500000  0.00000000  0.33333333
  0.37500000  0.00000000  0.41666667
  0.37500000  0.00000000  0.50000000
  0.37500000  0.00000000  0.58333333
  0.37500000  0.00000000  0.66666667
  0.37500000  0.00000000  0.75000000
  0.37500000  0.00000000  0.83333333
  0.37500000  0.00000000  0.91666667
  0.37500000  0.12500000  0.00000000
  0.37500000  0.12500000  0.08333333
  0.37500000  0.12500000  0.16666667
  0.37500000  0.12500000  0.25000000
  0.37500000  0.12500000  0.33333333
  0.37500000  0.12500000  0.41666667
  0.37500000  0.12500000  0.50000000
  0.37500000  0.12500000  0.58333333
  0.37500000  0.12500000  0.66666667
  0.37500000  0.12500000  0.75000000
  0.37500000  0.12500000  0.83333333
  0.37500000  0.12500000  0.91666667
  0.37500000  0.25000000  0.00000000
  0.37500000  0.25000000  0.08333333
  0.37500000  0.25000000  0.16666667
  0.37500000  0.25000000  0.25000000
  0.37500000  0.25000000  0.33333333
  0.37500000  0.25000000  0.41666667
  0.37500000  0.25000000  0.50000000
  0.37500000  0.25000000  0.58333333
  0.37500000  0.25000000  0.66666667
  0.37500000  0.25000000  0.75000000
  0.37500000  0.25000000  0.83333333
  0.37500000  0.25000000  0.91666667
  0.37500000  0.37500000  0.00000000
  0.37500000  0.37500000  0.08333333
  0.37500000  0.37500000  0.16666667
  0.37500000  0.37500000  0.25000000
  0.37500000  0.37500000  0.33333333
  0.37500000  0.37500000  0.41666667
  0.37500000  0.37500000  0.50000000
  0.37500000  0.37500000  0.58333333
  0.37500000  0.37500000  0.66666667
  0.37500000  0.37500000  0.75000000
  0.37500000  0.37500000  0.83333333
  0.37500000  0.37500000  0.91666667
  0.37500000  0.50000000  0.00000000
  0.37500000  0.50000000  0.08333333
  0.37500000  0.50000000  0.16666667
  0.37500000  0.50000000  0.25000000
  0.37500000  0.50000000  0.33333333
  0.37500000  0.50000000  0.41666667
  0.37500000  0.50000000  0.50000000
  0.37500000  0.50000000  0.58333333
  0.37500000  0.50000000  0.66666667
  0.37500000  0.50000000  0.75000000
  0.37500000  0.50000000  0.83333333
  0.37500000  0.50000000  0.91666667
  0.37500000  0.62500000  0.00000000
  0.37500000  0.62500000  0.08333333
  0.37500000  0.62500000  0.16666667
  0.37500000  0.62500000  0.25000000
  0.37500000  0.62500000  0.33333333
  0.37500000  0.62500000  0.41666667
  0.37500000  0.62500000  0.50000000
  0.37500000  0.62500000  0.58333333
  0.37500000  0.62500000  0.66666667
  0.37500000  0.62500000  0.75000000
  0.37500000  0.62500000  0.83333333
  0.37500000  0.62500000  0.91666667
  0.37500000  0.75000000  0.00000000
  0.37500000  0.75000000  0.08333333
  0.37500000  0.75000000  0.16666667
  0.37500000  0.75000000  0.25000000
  0.37500000  0.75000000  0.33333333
  0.37500000  0.75000000  0.41666667
  0.37500000  0.75000000  0.50000000
  0.37500000  0.75000000  0.58333333
  0.37500000  0.75000000  0.66666667
  0.37500000  0.75000000  0.75000000
  0.37500000  0.75000000  0.83333333
  0.37500000  0.75000000  0.91666667
  0.37500000  0.87500000  0.00000000
  0.37500000  0.87500000  0.08333333
  0.37500000  0.87500000  0.16666667
  0.37500000  0.87500000  0.25000000
  0.37500000  0.87500000  0.33333333
  0.37500000  0.87500000  0.41666667
  0.37500000  0.87500000  0.50000000
  0.37500000  0.87500000  0.58333333
  0.37500000  0.87500000  0.66666667
  0.37500000  0.87500000  0.75000000
  0.37500000  0.87500000  0.83333333
  0.37500000  0.87500000  0.91666667
  0.50000000  0.00000000  0.00000000
  0.50000000  0.00000000  0.08333333
  0.50000000  0.00000000  0.16666667
  0.50000000  0.00000000  0.25000000
  0.50000000  0.00000000  0.33333333
  0.50000000  0.00000000  0.41666667
  0.50000000  0.00000000  0.50000000
  0.50000000  0.00000000  0.58333333
  0.50000000  0.00000000  0.66666667
  0.50000000  0.00000000  0.75000000
  0.50000000  0.00000000  0.83333333
  0.50000000  0.00000000  0.91666667
  0.50000000  0.12500000  0.00000000
  0.50000000  0.12500000  0.08333333
  0.50000000  0.12500000  0.16666667
  0.50000000  0.12500000  0.25000000
  0.50000000  0.12500000  0.33333333
  0.50000000  0.12500000  0.41666667
  0.50000000  0.12500000  0.50000000
  0.50000000  0.12500000  0.58333333
  0.50000000  0.12500000  0.66666667
  0.50000000  0.12500000  0.75000000
  0.50000000  0.12500000  0.83333333
  0.50000000  0.12500000  0.91666667
  0.50000000  0.25000000  0.00000000
  0.50000000  0.25000000  0.08333333
  0.50000000  0.25000000  0.16666667
  0.50000000  0.25000000  0.25000000
  0.50000000  0.25000000  0.33333333
  0.50000000  0.25000000  0.41666667
  0.50000000  0.25000000  0.50000000
  0.50000000  0.25000000  0.58333333
  0.50000000  0.25000000  0.66666667
  0.50000000  0.25000000  0.75000000
  0.50000000  0.25000000  0.83333333
  0.50000000  0.25000000  0.91666667
  0.50000000  0.37500000  0.00000000
  0.50000000  0.37500000  0.08333333
  0.50000000  0.37500000  0.16666667
  0.50000000  0.37500000  0.25000000
  0.50000000  0.37500000  0.33333333
  0.50000000  0.37500000  0.41666667
  0.50000000  0.37500000  0.50000000
  0.50000000  0.37500000  0.58333333
  0.50000000  0.37500000  0.66666667
  0.50000000  0.37500000  0.75000000
  0.50000000  0.37500000  0.83333333
  0.50000000  0.37500000  0.91666667
  0.50000000  0.50000000  0.00000000
  0.50000000  0.50000000  0.08333333
  0.50000000  0.50000000  0.16666667
  0.50000000  0.50000000  0.25000000
  0.50000000  0.50000000  0.33333333
  0.50000000  0.50000000  0.41666667
  0.50000000  0.50000000  0.50000000
  0.50000000  0.50000000  0.58333333
  0.50000000  0.50000000  0.66666667
  0.50000000  0.50000000  0.75000000
  0.50000000  0.50000000  0.83333333
  0.50000000  0.50000000  0.91666667
  0.50000000  0.62500000  0.00000000
  0.50000000  0.62500000  0.08333333
  0.50000000  0.62500000  0.16666667
  0.50000000  0.62500000  0.25000000
  0.50000000  0.62500000  0.33333333
  0.50000000  0.62500000  0.41666667
  0.50000000  0.62500000  0.50000000
  0.50000000  0.62500000  0.58333333
  0.50000000  0.62500000  0.66666667
  0.50000000  0.62500000  0.75000000
  0.50000000  0.62500000  0.83333333
  0.50000000  0.62500000  0.91666667
  0.50000000  0.75000000  0.00000000
  0.50000000  0.75000000  0.08333333
  0.50000000  0.75000000  0.16666667
  0.50000000  0.75000000  0.25000000
  0.50000000  0.75000000  0.33333333
  0.50000000  0.75000000  0.41666667
  0.50000000  0.75000000  0.50000000
  0.50000000  0.75000000  0.58333333
  0.50000000  0.75000000  0.66666667
  0.50000000  0.75000000  0.75000000
  0.50000000  0.75000000  0.83333333
  0.50000000  0.75000000  0.91666667
  0.50000000  0.87500000  0.00000000
  0.50000000  0.87500000  0.08333333
  0.50000000  0.87500000  0.16666667
  0.50000000  0.87500000  0.25000000
  0.50000000  0.87500000  0.33333333
  0.50000000  0.87500000  0.41666667
  0.50000000  0.87500000  0.50000000
  0.50000000  0.87500000  0.58333333
  0.50000000  0.87500000  0.66666667
  0.50000000  0.87500000  0.75000000
  0.50000000  0.87500000  0.83333333
  0.50000000  0.87500000  0.91666667
  0.62500000  0.00000000  0.00000000
  0.62500000  0.00000000  0.08333333
  0.62500000  0.00000000  0.16666667
  0.62500000  0.00000000  0.25000000
  0.62500000  0.00000000  0.33333333
  0.62500000  0.00000000  0.41666667
  0.62500000  0.00000000  0.50000000
  0.62500000  0.00000000  0.58333333
  0.62500000  0.00000000  0.66666667
  0.62500000  0.00000000  0.75000000
  0.62500000  0.00000000  0.83333333
  0.62500000  0.00000000  0.91666667
  0.62500000  0.12500000  0.00000000
  0.62500000  0.12500000  0.08333333
  0.62500000  0.12500000  0.16666667
  0.62500000  0.12500000  0.25000000
  0.62500000  0.12500000  0.33333333
  0.62500000  0.12500000  0.41666667
  0.62500000  0.12500000  0.50000000
  0.62500000  0.12500000  0.58333333
  0.62500000  0.12500000  0.66666667
  0.62500000  0.12500000  0.75000000
  0.62500000  0.12500000  0.83333333
  0.62500000  0.12500000  0.91666667
  0.62500000  0.25000000  0.00000000
  0.62500000  0.25000000  0.08333333
  0.62500000  0.25000000  0.16666667
  0.62500000  0.25000000  0.25000000
  0.62500000  0.25000000  0.33333333
  0.62500000  0.25000000  0.41666667
  0.62500000  0.25000000  0.50000000
  0.62500000  0.25000000  0.58333333
  0.62500000  0.25000000  0.66666667
  0.62500000  0.25000000  0.75000000
  0.62500000  0.25000000  0.83333333
  0.62500000  0.25000000  0.91666667
  0.62500000  0.37500000  0.00000000
  0.62500000  0.37500000  0.08333333
  0.62500000  0.37500000  0.16666667
  0.62500000  0.37500000  0.25000000
  0.62500000  0.37500000  0.33333333
  0.62500000  0.37500000  0.41666667
  0.62500000  0.37500000  0.50000000
  0.62500000  0.37500000  0.58333333
  0.62500000  0.37500000  0.66666667
  0.62500000  0.37500000  0.75000000
  0.62500000  0.37500000  0.83333333
  0.62500000  0.37500000  0.91666667
  0.62500000  0.50000000  0.00000000
  0.62500000  0.50000000  0.08333333
  0.62500000  0.50000000  0.16666667
  0.62500000  0.50000000  0.25000000
  0.62500000  0.50000000  0.33333333
  0.62500000  0.50000000  0.41666667
  0.62500000  0.50000000  0.50000000
  0.62500000  0.50000000  0.58333333
  0.62500000  0.50000000  0.66666667
  0.62500000  0.50000000  0.75000000
  0.62500000  0.50000000  0.83333333
  0.62500000  0.50000000  0.91666667
  0.62500000  0.62500000  0.00000000
  0.62500000  0.62500000  0.08333333
  0.62500000  0.62500000  0.16666667
  0.62500000  0.62500000  0.25000000
  0.62500000  0.62500000  0.33333333
  0.62500000  0.62500000  0.41666667
  0.62500000  0.62500000  0.50000000
  0.62500000  0.62500000  0.58333333
  0.62500000  0.62500000  0.66666667
  0.62500000  0.62500000  0.75000000
  0.62500000  0.62500000  0.83333333
  0.62500000  0.62500000  0.91666667
  0.62500000  0.75000000  0.00000000
  0.62500000  0.75000000  0.08333333
  0.62500000  0.75000000  0.16666667
  0.62500000  0.75000000  0.25000000
  0.62500000  0.75000000  0.33333333
  0.62500000  0.75000000  0.41666667
  0.62500000  0.75000000  0.50000000
  0.62500000  0.75000000  0.58333333
  0.62500000  0.75000000  0.66666667
  0.62500000  0.75000000  0.75000000
  0.62500000  0.75000000  0.83333333
  0.62500000  0.75000000  0.91666667
  0.62500000  0.87500000  0.00000000
  0.62500000  0.87500000  0.08333333
  0.62500000  0.87500000  0.16666667
  0.62500000  0.87500000  0.25000000
  0.62500000  0.87500000  0.33333333
  0.62500000  0.87500000  0.41666667
  0.62500000  0.87500000  0.50000000
  0.62500000  0.87500000  0.58333333
  0.62500000  0.87500000  0.66666667
  0.62500000  0.87500000  0.75000000
  0.62500000  0.87500000  0.83333333
  0.62500000  0.87500000  0.91666667
  0.75000000  0.00000000  0.00000000
  0.75000000  0.00000000  0.08333333
  0.75000000  0.00000000  0.16666667
  0.75000000  0.00000000  0.25000000
  0.75000000  0.00000000  0.33333333
  0.75000000  0.00000000  0.41666667
  0.75000000  0.00000000  0.50000000
  0.75000000  0.00000000  0.58333333
  0.75000000  0.00000000  0.66666667
  0.75000000  0.00000000  0.75000000
  0.75000000  0.00000000  0.83333333
  0.75000000  0.00000000  0.91666667
  0.75000000  0.12500000  0.00000000
  0.75000000  0.12500000  0.08333333
  0.75000000  0.12500000  0.16666667
  0.75000000  0.12500000  0.25000000
  0.75000000  0.12500000  0.33333333
  0.75000000  0.12500000  0.41666667
  0.75000000  0.12500000  0.50000000
  0.75000000  0.12500000  0.58333333
  0.75000000  0.12500000  0.66666667
  0.75000000  0.12500000  0.75000000
  0.75000000  0.12500000  0.83333333
  0.75000000  0.12500000  0.91666667
  0.75000000  0.25000000  0.00000000
  0.75000000  0.25000000  0.08333333
  0.75000000  0.25000000  0.16666667
  0.75000000  0.25000000  0.25000000
  0.75000000  0.25000000  0.33333333
  0.75000000  0.25000000  0.41666667
  0.75000000  0.25000000  0.50000000
  0.75000000  0.25000000  0.58333333
  0.75000000  0.25000000  0.66666667
  0.75000000  0.25000000  0.75000000
  0.75000000  0.25000000  0.83333333
  0.75000000  0.25000000  0.91666667
  0.75000000  0.37500000  0.00000000
  0.75000000  0.37500000  0.08333333
  0.75000000  0.37500000  0.16666667
  0.75000000  0.37500000  0.25000000
  0.75000000  0.37500000  0.33333333
  0.75000000  0.37500000  0.41666667
  0.75000000  0.37500000  0.50000000
  0.75000000  0.37500000  0.58333333
  0.75000000  0.37500000  0.66666667
  0.75000000  0.37500000  0.75000000
  0.75000000  0.37500000  0.83333333
  0.75000000  0.37500000  0.91666667
  0.75000000  0.50000000  0.00000000
  0.75000000  0.50000000  0.08333333
  0.75000000  0.50000000  0.16666667
  0.75000000  0.50000000  0.25000000
  0.75000000  0.50000000  0.33333333
  0.75000000  0.50000000  0.41666667
  0.75000000  0.50000000  0.50000000
  0.75000000  0.50000000  0.58333333
  0.75000000  0.50000000  0.66666667
  0.75000000  0.50000000  0.75000000
  0.75000000  0.50000000  0.83333333
  0.75000000  0.50000000  0.91666667
  0.75000000  0.62500000  0.00000000
  0.75000000  0.62500000  0.08333333
  0.75000000  0.62500000  0.16666667
  0.75000000  0.62500000  0.25000000
  0.75000000  0.62500000  0.33333333
  0.75000000  0.62500000  0.41666667
  0.75000000  0.62500000  0.50000000
  0.75000000  0.62500000  0.58333333
  0.75000000  0.62500000  0.66666667
  0.75000000  0.62500000  0.75000000
  0.75000000  0.62500000  0.83333333
  0.75000000  0.62500000  0.91666667
  0.75000000  0.75000000  0.00000000
  0.75000000  0.75000000  0.08333333
  0.75000000  0.75000000  0.16666667
  0.75000000  0.75000000  0.25000000
  0.75000000  0.75000000  0.33333333
  0.75000000  0.75000000  0.41666667
  0.75000000  0.75000000  0.50000000
  0.75000000  0.75000000  0.58333333
  0.75000000  0.75000000  0.66666667
  0.75000000  0.75000000  0.75000000
  0.75000000  0.75000000  0.83333333
  0.75000000  0.75000000  0.91666667
  0.75000000  0.87500000  0.00000000
  0.75000000  0.87500000  0.08333333
  0.75000000  0.87500000  0.16666667
  0.75000000  0.87500000  0.25000000
  0.75000000  0.87500000  0.33333333
  0.75000000  0.87500000  0.41666667
  0.75000000  0.87500000  0.50000000
  0.75000000  0.87500000  0.58333333
  0.75000000  0.87500000  0.66666667
  0.75000000  0.87500000  0.75000000
  0.75000000  0.87500000  0.83333333
  0.75000000  0.87500000  0.91666667
  0.87500000  0.00000000  0.00000000
  0.87500000  0.00000000  0.08333333
  0.87500000  0.00000000  0.16666667
  0.87500000  0.00000000  0.25000000
  0.87500000  0.00000000  0.33333333
  0.87500000  0.00000000  0.41666667
  0.87500000  0.00000000  0.50000000
  0.87500000  0.00000000  0.58333333
  0.87500000  0.00000000  0.66666667
  0.87500000  0.00000000  0.75000000
  0.87500000  0.00000000  0.83333333
  0.87500000  0.00000000  0.91666667
  0.87500000  0.12500000  0.00000000
  0.87500000  0.12500000  0.08333333
  0.87500000  0.12500000  0.16666667
  0.87500000  0.12500000  0.25000000
  0.87500000  0.12500000  0.33333333
  0.87500000  0.12500000  0.41666667
  0.87500000  0.12500000  0.50000000
  0.87500000  0.12500000  0.58333333
  0.87500000  0.12500000  0.66666667
  0.87500000  0.12500000  0.75000000
  0.87500000  0.12500000  0.83333333
  0.87500000  0.12500000  0.91666667
  0.87500000  0.25000000  0.00000000
  0.87500000  0.25000000  0.08333333
  0.87500000  0.25000000  0.16666667
  0.87500000  0.25000000  0.25000000
  0.87500000  0.25000000  0.33333333
  0.87500000  0.25000000  0.41666667
  0.87500000  0.25000000  0.50000000
  0.87500000  0.25000000  0.58333333
  0.87500000  0.25000000  0.66666667
  0.87500000  0.25000000  0.75000000
  0.87500000  0.25000000  0.83333333
  0.87500000  0.25000000  0.91666667
  0.87500000  0.37500000  0.00000000
  0.87500000  0.37500000  0.08333333
  0.87500000  0.37500000  0.16666667
  0.87500000  0.37500000  0.25000000
  0.87500000  0.37500000  0.33333333
  0.87500000  0.37500000  0.41666667
  0.87500000  0.37500000  0.50000000
  0.87500000  0.37500000  0.58333333
  0.87500000  0.37500000  0.66666667
  0.87500000  0.37500000  0.75000000
  0.87500000  0.37500000  0.83333333
  0.87500000  0.37500000  0.91666667
  0.87500000  0.50000000  0.00000000
  0.87500000  0.50000000  0.08333333
  0.87500000  0.50000000  0.16666667
  0.87500000  0.50000000  0.25000000
  0.87500000  0.50000000  0.33333333
  0.87500000  0.50000000  0.41666667
  0.87500000  0.50000000  0.50000000
  0.87500000  0.50000000  0.58333333
  0.87500000  0.50000000  0.66666667
  0.87500000  0.50000000  0.75000000
  0.87500000  0.50000000  0.83333333
  0.87500000  0.50000000  0.91666667
  0.87500000  0.62500000  0.00000000
  0.87500000  0.62500000  0.08333333
  0.87500000  0.62500000  0.16666667
  0.87500000  0.62500000  0.25000000
  0.87500000  0.62500000  0.33333333
  0.87500000  0.62500000  0.41666667
  0.87500000  0.62500000  0.50000000
  0.87500000  0.62500000  0.58333333
  0.87500000  0.62500000  0.66666667
  0.87500000  0.62500000  0.75000000
  0.87500000  0.62500000  0.83333333
  0.87500000  0.62500000  0.91666667
  0.87500000  0.75000000  0.00000000
  0.87500000  0.75000000  0.08333333
  0.87500000  0.75000000  0.16666667
  0.87500000  0.75000000  0.25000000
  0.87500000  0.75000000  0.33333333
  0.87500000  0.75000000  0.41666667
  0.87500000  0.75000000  0.50000000
  0.87500000  0.75000000  0.58333333
  0.87500000  0.75000000  0.66666667
  0.87500000  0.75000000  0.75000000
  0.87500000  0.75000000  0.83333333
  0.87500000  0.75000000  0.91666667
  0.87500000  0.87500000  0.00000000
  0.87500000  0.87500000  0.08333333
  0.87500000  0.87500000  0.16666667
  0.87500000  0.87500000  0.25000000
  0.87500000  0.87500000  0.33333333
  0.87500000  0.87500000  0.41666667
  0.87500000  0.87500000  0.50000000
  0.87500000  0.87500000  0.58333333
  0.87500000  0.87500000  0.66666667
  0.87500000  0.87500000  0.75000000
  0.87500000  0.87500000  0.83333333
  0.87500000  0.87500000  0.91666667
end kpoints

