num_wann = 36
exclude_bands = 1-124 161-320
num_iter = 500

auto_projections =.true.

begin atoms_frac
H 0.4942640379647513 0.14297401098192963 0.6853760526441934
H 0.5057360388459238 0.8570260658287455 0.3146240241664817
H 0.005736000440586177 0.6429740493872671 0.31462402416648166
H 0.994264076370089 0.35702602742340794 0.6853760526441934
H 0.5057360388459238 0.8570260658287455 0.18537601423885594
H 0.4942640379647513 0.14297401098192963 0.8146240625718192
H 0.994264076370089 0.35702602742340794 0.8146240625718192
H 0.005736000440586177 0.6429740493872671 0.1853760142388559
H 0.3380590259665398 0.07863200603977727 0.7500000576080064
H 0.6619410508441352 0.9213680707708979 0.25000001920266884
H 0.16194101243879777 0.5786320444451147 0.2500000192026688
H 0.8380590643718775 0.42136803236556025 0.7500000576080064
H 0.4947750380040015 0.8798890675848681 0.6807610522897122
H 0.5052250388066736 0.12011100922580696 0.3192390245209629
H 0.00522500040133601 0.3798890291795305 0.3192390245209629
H 0.9947750764093393 0.6201110476311446 0.6807610522897122
H 0.5052250388066736 0.12011100922580696 0.18076101388437466
H 0.4947750380040015 0.8798890675848681 0.8192390629263006
H 0.9947750764093393 0.6201110476311446 0.8192390629263006
H 0.00522500040133601 0.3798890291795305 0.1807610138843746
H 0.6598480506833704 0.9496630729442561 0.7500000576080064
H 0.34015202612730483 0.05033700386641892 0.2500000192026688
H 0.8401520645326424 0.44966303453891876 0.25000001920266884
H 0.15984801227803278 0.5503370422717564 0.7500000576080064
Pb 0.5000000384053376 0.5000000384053376 4.2055121458407514e-17
Pb 0.0 0.0 0.0
Pb 0.5000000384053376 0.5000000384053376 0.5000000384053376
Pb 0.0 0.0 0.5000000384053376
C 0.532355040890547 0.9378380720359698 0.7500000576080064
C 0.4676450359201281 0.06216200477470523 0.2500000192026688
C 0.9676450743254656 0.43783803363063234 0.25000001920266884
C 0.03235500248520949 0.5621620431800427 0.7500000576080064
I 0.5377330413036348 0.512596039372845 0.7500000576080064
I 0.46226703550704035 0.48740403743783006 0.2500000192026688
I 0.9622670739123781 0.012596000967507537 0.2500000192026688
I 0.03773300289829716 0.9874040758431677 0.7500000576080064
I 0.8160660626825803 0.6928390532174312 0.022147001701126226
I 0.18393401412809487 0.30716102359324376 0.9778530751095489
I 0.6839340525334325 0.19283901481209376 0.977853075109549
I 0.31606602427724256 0.8071610619985814 0.02214700170112621
I 0.18393401412809487 0.30716102359324376 0.5221470401064637
I 0.8160660626825803 0.6928390532174312 0.4778530367042115
I 0.31606602427724256 0.8071610619985814 0.4778530367042114
I 0.6839340525334325 0.19283901481209376 0.5221470401064637
N 0.45960903530287733 0.08486300651838456 0.7500000576080064
N 0.5403910415077978 0.9151370702922906 0.25000001920266884
N 0.04039100310246023 0.5848630449237221 0.2500000192026688
N 0.9596090737082149 0.41513703188695295 0.7500000576080064
end atoms_frac

geninterp = true
geninterp_alsofirstder = true

begin unit_cell_cart
8.556725 0.000000 0.000000
0.000000 9.250459 0.000000
0.000000 0.000000 12.963649
end unit_cell_cart

mp_grid : 4 4 4

begin kpoints
  0.00000000  0.00000000  0.00000000
  0.00000000  0.00000000  0.25000000
  0.00000000  0.00000000  0.50000000
  0.00000000  0.00000000  0.75000000
  0.00000000  0.25000000  0.00000000
  0.00000000  0.25000000  0.25000000
  0.00000000  0.25000000  0.50000000
  0.00000000  0.25000000  0.75000000
  0.00000000  0.50000000  0.00000000
  0.00000000  0.50000000  0.25000000
  0.00000000  0.50000000  0.50000000
  0.00000000  0.50000000  0.75000000
  0.00000000  0.75000000  0.00000000
  0.00000000  0.75000000  0.25000000
  0.00000000  0.75000000  0.50000000
  0.00000000  0.75000000  0.75000000
  0.25000000  0.00000000  0.00000000
  0.25000000  0.00000000  0.25000000
  0.25000000  0.00000000  0.50000000
  0.25000000  0.00000000  0.75000000
  0.25000000  0.25000000  0.00000000
  0.25000000  0.25000000  0.25000000
  0.25000000  0.25000000  0.50000000
  0.25000000  0.25000000  0.75000000
  0.25000000  0.50000000  0.00000000
  0.25000000  0.50000000  0.25000000
  0.25000000  0.50000000  0.50000000
  0.25000000  0.50000000  0.75000000
  0.25000000  0.75000000  0.00000000
  0.25000000  0.75000000  0.25000000
  0.25000000  0.75000000  0.50000000
  0.25000000  0.75000000  0.75000000
  0.50000000  0.00000000  0.00000000
  0.50000000  0.00000000  0.25000000
  0.50000000  0.00000000  0.50000000
  0.50000000  0.00000000  0.75000000
  0.50000000  0.25000000  0.00000000
  0.50000000  0.25000000  0.25000000
  0.50000000  0.25000000  0.50000000
  0.50000000  0.25000000  0.75000000
  0.50000000  0.50000000  0.00000000
  0.50000000  0.50000000  0.25000000
  0.50000000  0.50000000  0.50000000
  0.50000000  0.50000000  0.75000000
  0.50000000  0.75000000  0.00000000
  0.50000000  0.75000000  0.25000000
  0.50000000  0.75000000  0.50000000
  0.50000000  0.75000000  0.75000000
  0.75000000  0.00000000  0.00000000
  0.75000000  0.00000000  0.25000000
  0.75000000  0.00000000  0.50000000
  0.75000000  0.00000000  0.75000000
  0.75000000  0.25000000  0.00000000
  0.75000000  0.25000000  0.25000000
  0.75000000  0.25000000  0.50000000
  0.75000000  0.25000000  0.75000000
  0.75000000  0.50000000  0.00000000
  0.75000000  0.50000000  0.25000000
  0.75000000  0.50000000  0.50000000
  0.75000000  0.50000000  0.75000000
  0.75000000  0.75000000  0.00000000
  0.75000000  0.75000000  0.25000000
  0.75000000  0.75000000  0.50000000
  0.75000000  0.75000000  0.75000000
end kpoints

