&CONTROL
  calculation = 'nscf',
  disk_io = 'low',
  outdir = 'out/',
  prefix = 'mp-995214',
  pseudo_dir = '/usr/scratch4/magr4985/MG/devEb/pseudo/SG15',
/
&SYSTEM
  celldm(1) = 16.16986749934897,
  celldm(2) = 1.0810747007675603,
  celldm(3) = 1.5150245549524435,
  degauss = 0.0004593661607577953,
  ecutwfc = 65,
  force_symmorphic = .FALSE.,
  ibrav = 8,
  nbnd = 320,
  nosym = .TRUE.,
  occupations = 'smearing',
  smearing = 'gaussian',
  nat = 48,
  ntyp = 5,
/
&ELECTRONS
  conv_thr = 1d-10,
  diago_full_acc = .TRUE.,
  diago_thr_init = 5d-06,
  diagonalization = 'david',
/
&IONS
/
&CELL
/
ATOMIC_SPECIES
  C  12.0107 C.upf
  H  1.0079 H.upf
  I  126.9045 I.upf
  N  14.0067 N.upf
  Pb  207.2000 Pb.upf
ATOMIC_POSITIONS crystal
  H 0.49426404 0.14297401 0.68537605
  H 0.50573604 0.85702607 0.31462402
  H 0.00573600 0.64297405 0.31462402
  H 0.99426408 0.35702603 0.68537605
  H 0.50573604 0.85702607 0.18537601
  H 0.49426404 0.14297401 0.81462406
  H 0.99426408 0.35702603 0.81462406
  H 0.00573600 0.64297405 0.18537601
  H 0.33805903 0.07863201 0.75000006
  H 0.66194105 0.92136807 0.25000002
  H 0.16194101 0.57863204 0.25000002
  H 0.83805906 0.42136803 0.75000006
  H 0.49477504 0.87988907 0.68076105
  H 0.50522504 0.12011101 0.31923902
  H 0.00522500 0.37988903 0.31923902
  H 0.99477508 0.62011105 0.68076105
  H 0.50522504 0.12011101 0.18076101
  H 0.49477504 0.87988907 0.81923906
  H 0.99477508 0.62011105 0.81923906
  H 0.00522500 0.37988903 0.18076101
  H 0.65984805 0.94966307 0.75000006
  H 0.34015203 0.05033700 0.25000002
  H 0.84015206 0.44966303 0.25000002
  H 0.15984801 0.55033704 0.75000006
  Pb 0.50000004 0.50000004 0.00000000
  Pb 0.00000000 0.00000000 0.00000000
  Pb 0.50000004 0.50000004 0.50000004
  Pb 0.00000000 0.00000000 0.50000004
  C 0.53235504 0.93783807 0.75000006
  C 0.46764504 0.06216200 0.25000002
  C 0.96764507 0.43783803 0.25000002
  C 0.03235500 0.56216204 0.75000006
  I 0.53773304 0.51259604 0.75000006
  I 0.46226704 0.48740404 0.25000002
  I 0.96226707 0.01259600 0.25000002
  I 0.03773300 0.98740408 0.75000006
  I 0.81606606 0.69283905 0.02214700
  I 0.18393401 0.30716102 0.97785308
  I 0.68393405 0.19283901 0.97785308
  I 0.31606602 0.80716106 0.02214700
  I 0.18393401 0.30716102 0.52214704
  I 0.81606606 0.69283905 0.47785304
  I 0.31606602 0.80716106 0.47785304
  I 0.68393405 0.19283901 0.52214704
  N 0.45960904 0.08486301 0.75000006
  N 0.54039104 0.91513707 0.25000002
  N 0.04039100 0.58486304 0.25000002
  N 0.95960907 0.41513703 0.75000006
K_POINTS crystal
64
  0.00000000  0.00000000  0.00000000  1.562500e-02
  0.00000000  0.00000000  0.25000000  1.562500e-02
  0.00000000  0.00000000  0.50000000  1.562500e-02
  0.00000000  0.00000000  0.75000000  1.562500e-02
  0.00000000  0.25000000  0.00000000  1.562500e-02
  0.00000000  0.25000000  0.25000000  1.562500e-02
  0.00000000  0.25000000  0.50000000  1.562500e-02
  0.00000000  0.25000000  0.75000000  1.562500e-02
  0.00000000  0.50000000  0.00000000  1.562500e-02
  0.00000000  0.50000000  0.25000000  1.562500e-02
  0.00000000  0.50000000  0.50000000  1.562500e-02
  0.00000000  0.50000000  0.75000000  1.562500e-02
  0.00000000  0.75000000  0.00000000  1.562500e-02
  0.00000000  0.75000000  0.25000000  1.562500e-02
  0.00000000  0.75000000  0.50000000  1.562500e-02
  0.00000000  0.75000000  0.75000000  1.562500e-02
  0.25000000  0.00000000  0.00000000  1.562500e-02
  0.25000000  0.00000000  0.25000000  1.562500e-02
  0.25000000  0.00000000  0.50000000  1.562500e-02
  0.25000000  0.00000000  0.75000000  1.562500e-02
  0.25000000  0.25000000  0.00000000  1.562500e-02
  0.25000000  0.25000000  0.25000000  1.562500e-02
  0.25000000  0.25000000  0.50000000  1.562500e-02
  0.25000000  0.25000000  0.75000000  1.562500e-02
  0.25000000  0.50000000  0.00000000  1.562500e-02
  0.25000000  0.50000000  0.25000000  1.562500e-02
  0.25000000  0.50000000  0.50000000  1.562500e-02
  0.25000000  0.50000000  0.75000000  1.562500e-02
  0.25000000  0.75000000  0.00000000  1.562500e-02
  0.25000000  0.75000000  0.25000000  1.562500e-02
  0.25000000  0.75000000  0.50000000  1.562500e-02
  0.25000000  0.75000000  0.75000000  1.562500e-02
  0.50000000  0.00000000  0.00000000  1.562500e-02
  0.50000000  0.00000000  0.25000000  1.562500e-02
  0.50000000  0.00000000  0.50000000  1.562500e-02
  0.50000000  0.00000000  0.75000000  1.562500e-02
  0.50000000  0.25000000  0.00000000  1.562500e-02
  0.50000000  0.25000000  0.25000000  1.562500e-02
  0.50000000  0.25000000  0.50000000  1.562500e-02
  0.50000000  0.25000000  0.75000000  1.562500e-02
  0.50000000  0.50000000  0.00000000  1.562500e-02
  0.50000000  0.50000000  0.25000000  1.562500e-02
  0.50000000  0.50000000  0.50000000  1.562500e-02
  0.50000000  0.50000000  0.75000000  1.562500e-02
  0.50000000  0.75000000  0.00000000  1.562500e-02
  0.50000000  0.75000000  0.25000000  1.562500e-02
  0.50000000  0.75000000  0.50000000  1.562500e-02
  0.50000000  0.75000000  0.75000000  1.562500e-02
  0.75000000  0.00000000  0.00000000  1.562500e-02
  0.75000000  0.00000000  0.25000000  1.562500e-02
  0.75000000  0.00000000  0.50000000  1.562500e-02
  0.75000000  0.00000000  0.75000000  1.562500e-02
  0.75000000  0.25000000  0.00000000  1.562500e-02
  0.75000000  0.25000000  0.25000000  1.562500e-02
  0.75000000  0.25000000  0.50000000  1.562500e-02
  0.75000000  0.25000000  0.75000000  1.562500e-02
  0.75000000  0.50000000  0.00000000  1.562500e-02
  0.75000000  0.50000000  0.25000000  1.562500e-02
  0.75000000  0.50000000  0.50000000  1.562500e-02
  0.75000000  0.50000000  0.75000000  1.562500e-02
  0.75000000  0.75000000  0.00000000  1.562500e-02
  0.75000000  0.75000000  0.25000000  1.562500e-02
  0.75000000  0.75000000  0.50000000  1.562500e-02
  0.75000000  0.75000000  0.75000000  1.562500e-02


