&inputpp
    prefix = 'mp-1253'
    outdir='out/',
    plot_num=10,
    emin = 7.337537321460022,
    emax = 8.337537321460022,
    delta_e = 0.1,
/
&plot
    iflag=3,
    output_format=6,
    fileout='ldos.cube',
/
