H24 Pb4 C4 Br12 N4
1.0
   8.0645903805533674    0.0000000000000000    0.0000000000000000
   0.0000000000000000    8.7760063259090284    0.0000000000000000
   0.0000000000000000    0.0000000000000000   12.0830620718918400
H Pb C Br N
24 4 4 12 4
direct
   0.5087350390762790    0.6552250503282746    0.6807300522873311 H
   0.0087350006709416    0.8447750648877381    0.8192700629286819 H
   0.4912650377343963    0.3447750264824006    0.1807300138819934 H
   0.9912650761397339    0.1552250119229370    0.3192700245233443 H
   0.4912650377343963    0.3447750264824006    0.3192700245233443 H
   0.9912650761397339    0.1552250119229370    0.1807300138819934 H
   0.5087350390762790    0.6552250503282746    0.8192700629286819 H
   0.0087350006709416    0.8447750648877381    0.6807300522873311 H
   0.6782720520985304    0.5953040457257023    0.7500000576080065 H
   0.1782720136931928    0.9046960694903106    0.7500000576080065 H
   0.3217280247121450    0.4046960310849730    0.2500000192026688 H
   0.8217280631174826    0.0953040073203646    0.2500000192026688 H
   0.5240280402509447    0.3784110290660045    0.6756350518959808 H
   0.0240280018456069    0.1215890093393331    0.8243650633200321 H
   0.4759720365597308    0.6215890477446707    0.1756350134906432 H
   0.9759720749650683    0.8784110674713421    0.3243650249146945 H
   0.4759720365597308    0.6215890477446707    0.3243650249146945 H
   0.9759720749650683    0.8784110674713421    0.1756350134906433 H
   0.5240280402509447    0.3784110290660045    0.8243650633200321 H
   0.0240280018456069    0.1215890093393331    0.6756350518959808 H
   0.3458690265664315    0.4438620340933399    0.7500000576080065 H
   0.8458690649717691    0.0561380043119977    0.7500000576080065 H
   0.6541310502442439    0.5561380427173354    0.2500000192026688 H
   0.1541310118389064    0.9438620724986775    0.2500000192026688 H
   0.5000000384053376    0.0000000000000000    0.0000000000000000 Pb
   0.0000000000000001    0.5000000384053376    0.5000000384053377 Pb
   0.5000000384053376    0.0000000000000000    0.5000000384053377 Pb
   0.0000000000000001    0.5000000384053376    0.0000000000000000 Pb
   0.4810650369509276    0.4377480336237195    0.7500000576080065 C
   0.9810650753562652    0.0622520047816181    0.7500000576080065 C
   0.5189350398597478    0.5622520431869557    0.2500000192026688 C
   0.0189350014544102    0.9377480720290571    0.2500000192026688 C
   0.4669710358683578    0.0181150013914254    0.7500000576080065 Br
   0.9669710742736957    0.4818850370139122    0.7500000576080065 Br
   0.5330290409423175    0.9818850754192497    0.2500000192026689 Br
   0.0330290025369799    0.5181150397967630    0.2500000192026688 Br
   0.7957760611240920    0.7889530606000126    0.9706400745555140 Br
   0.2957760227187544    0.7110470546160002    0.5293600406604991 Br
   0.2042240156865833    0.2110470162106625    0.4706400361501762 Br
   0.7042240540919209    0.2889530221946751    0.0293600022551614 Br
   0.2042240156865833    0.2110470162106625    0.0293600022551614 Br
   0.7042240540919209    0.2889530221946751    0.4706400361501762 Br
   0.7957760611240920    0.7889530606000126    0.5293600406604991 Br
   0.2957760227187544    0.7110470546160002    0.9706400745555140 Br
   0.5491350421794303    0.5962500457983650    0.7500000576080065 N
   0.0491350037740928    0.9037500694176478    0.7500000576080065 N
   0.4508650346312451    0.4037500310123102    0.2500000192026688 N
   0.9508650730365826    0.0962500073930274    0.2500000192026688 N
