&CONTROL
  calculation = 'scf',
  disk_io = 'low',
  outdir = 'out/',
  prefix = 'mp-23291',
  pseudo_dir = '/usr/scratch4/magr4826/Promotion/Python/Code/devEb/pseudo/SG15',
/
&SYSTEM
  celldm(1) = 8.594523836001121,
  celldm(2) = 1.6867781913178306,
  celldm(3) = 2.016503136103113,
  degauss = 0.0004593661607577953,
  ecutwfc = 65,
  force_symmorphic = .FALSE.,
  ibrav = 8,
  nbnd = 112,
  nosym = .FALSE.,
  occupations = 'smearing',
  smearing = 'gaussian',
  nat = 12,
  ntyp = 2,
/
&ELECTRONS
  conv_thr = 1d-10,
  diago_full_acc = .TRUE.,
  diago_thr_init = 5d-06,
  diagonalization = 'paro',
/
&IONS
/
&CELL
/
ATOMIC_SPECIES
  Cl  35.4530 Cl.upf
  Pb  207.2000 Pb.upf
ATOMIC_POSITIONS crystal
  Pb 0.25000002 0.26365271 0.90944605
  Pb 0.75000006 0.73634737 0.09055403
  Pb 0.25000002 0.76365275 0.59055407
  Pb 0.75000006 0.23634733 0.40944601
  Cl 0.25000002 0.48276903 0.15764770
  Cl 0.75000006 0.51723105 0.84235237
  Cl 0.25000002 0.98276907 0.34235234
  Cl 0.75000006 0.01723101 0.65764774
  Cl 0.75000006 0.64146140 0.42262665
  Cl 0.25000002 0.35853868 0.57737342
  Cl 0.75000006 0.14146136 0.07737339
  Cl 0.25000002 0.85853872 0.92262669
K_POINTS automatic
  10 6 4 0 0 0

