&inputpp
    prefix = 'mp-23155'
    outdir='out/',
    plot_num=10,
    emin = 4.242967140697841,
    emax = 5.242967140697841,
    delta_e = 0.1,
/
&plot
    iflag=3,
    output_format=6,
    fileout='ldos.cube',
/
