num_wann = 3
exclude_bands = 1-5 9-16
num_iter = 500

auto_projections =.true.

begin atoms_frac
Ca 0.0 0.0 0.0
Se 0.4999999615946624 0.5000000384053375 0.4999999615946624
end atoms_frac

geninterp = true
geninterp_alsofirstder = true

begin unit_cell_cart
-2.970238 0.000000 2.970238
0.000000 2.970238 2.970238
-2.970238 2.970238 0.000000
end unit_cell_cart

mp_grid : 12 12 12

begin kpoints
  0.00000000  0.00000000  0.00000000
  0.00000000  0.00000000  0.08333333
  0.00000000  0.00000000  0.16666667
  0.00000000  0.00000000  0.25000000
  0.00000000  0.00000000  0.33333333
  0.00000000  0.00000000  0.41666667
  0.00000000  0.00000000  0.50000000
  0.00000000  0.00000000  0.58333333
  0.00000000  0.00000000  0.66666667
  0.00000000  0.00000000  0.75000000
  0.00000000  0.00000000  0.83333333
  0.00000000  0.00000000  0.91666667
  0.00000000  0.08333333  0.00000000
  0.00000000  0.08333333  0.08333333
  0.00000000  0.08333333  0.16666667
  0.00000000  0.08333333  0.25000000
  0.00000000  0.08333333  0.33333333
  0.00000000  0.08333333  0.41666667
  0.00000000  0.08333333  0.50000000
  0.00000000  0.08333333  0.58333333
  0.00000000  0.08333333  0.66666667
  0.00000000  0.08333333  0.75000000
  0.00000000  0.08333333  0.83333333
  0.00000000  0.08333333  0.91666667
  0.00000000  0.16666667  0.00000000
  0.00000000  0.16666667  0.08333333
  0.00000000  0.16666667  0.16666667
  0.00000000  0.16666667  0.25000000
  0.00000000  0.16666667  0.33333333
  0.00000000  0.16666667  0.41666667
  0.00000000  0.16666667  0.50000000
  0.00000000  0.16666667  0.58333333
  0.00000000  0.16666667  0.66666667
  0.00000000  0.16666667  0.75000000
  0.00000000  0.16666667  0.83333333
  0.00000000  0.16666667  0.91666667
  0.00000000  0.25000000  0.00000000
  0.00000000  0.25000000  0.08333333
  0.00000000  0.25000000  0.16666667
  0.00000000  0.25000000  0.25000000
  0.00000000  0.25000000  0.33333333
  0.00000000  0.25000000  0.41666667
  0.00000000  0.25000000  0.50000000
  0.00000000  0.25000000  0.58333333
  0.00000000  0.25000000  0.66666667
  0.00000000  0.25000000  0.75000000
  0.00000000  0.25000000  0.83333333
  0.00000000  0.25000000  0.91666667
  0.00000000  0.33333333  0.00000000
  0.00000000  0.33333333  0.08333333
  0.00000000  0.33333333  0.16666667
  0.00000000  0.33333333  0.25000000
  0.00000000  0.33333333  0.33333333
  0.00000000  0.33333333  0.41666667
  0.00000000  0.33333333  0.50000000
  0.00000000  0.33333333  0.58333333
  0.00000000  0.33333333  0.66666667
  0.00000000  0.33333333  0.75000000
  0.00000000  0.33333333  0.83333333
  0.00000000  0.33333333  0.91666667
  0.00000000  0.41666667  0.00000000
  0.00000000  0.41666667  0.08333333
  0.00000000  0.41666667  0.16666667
  0.00000000  0.41666667  0.25000000
  0.00000000  0.41666667  0.33333333
  0.00000000  0.41666667  0.41666667
  0.00000000  0.41666667  0.50000000
  0.00000000  0.41666667  0.58333333
  0.00000000  0.41666667  0.66666667
  0.00000000  0.41666667  0.75000000
  0.00000000  0.41666667  0.83333333
  0.00000000  0.41666667  0.91666667
  0.00000000  0.50000000  0.00000000
  0.00000000  0.50000000  0.08333333
  0.00000000  0.50000000  0.16666667
  0.00000000  0.50000000  0.25000000
  0.00000000  0.50000000  0.33333333
  0.00000000  0.50000000  0.41666667
  0.00000000  0.50000000  0.50000000
  0.00000000  0.50000000  0.58333333
  0.00000000  0.50000000  0.66666667
  0.00000000  0.50000000  0.75000000
  0.00000000  0.50000000  0.83333333
  0.00000000  0.50000000  0.91666667
  0.00000000  0.58333333  0.00000000
  0.00000000  0.58333333  0.08333333
  0.00000000  0.58333333  0.16666667
  0.00000000  0.58333333  0.25000000
  0.00000000  0.58333333  0.33333333
  0.00000000  0.58333333  0.41666667
  0.00000000  0.58333333  0.50000000
  0.00000000  0.58333333  0.58333333
  0.00000000  0.58333333  0.66666667
  0.00000000  0.58333333  0.75000000
  0.00000000  0.58333333  0.83333333
  0.00000000  0.58333333  0.91666667
  0.00000000  0.66666667  0.00000000
  0.00000000  0.66666667  0.08333333
  0.00000000  0.66666667  0.16666667
  0.00000000  0.66666667  0.25000000
  0.00000000  0.66666667  0.33333333
  0.00000000  0.66666667  0.41666667
  0.00000000  0.66666667  0.50000000
  0.00000000  0.66666667  0.58333333
  0.00000000  0.66666667  0.66666667
  0.00000000  0.66666667  0.75000000
  0.00000000  0.66666667  0.83333333
  0.00000000  0.66666667  0.91666667
  0.00000000  0.75000000  0.00000000
  0.00000000  0.75000000  0.08333333
  0.00000000  0.75000000  0.16666667
  0.00000000  0.75000000  0.25000000
  0.00000000  0.75000000  0.33333333
  0.00000000  0.75000000  0.41666667
  0.00000000  0.75000000  0.50000000
  0.00000000  0.75000000  0.58333333
  0.00000000  0.75000000  0.66666667
  0.00000000  0.75000000  0.75000000
  0.00000000  0.75000000  0.83333333
  0.00000000  0.75000000  0.91666667
  0.00000000  0.83333333  0.00000000
  0.00000000  0.83333333  0.08333333
  0.00000000  0.83333333  0.16666667
  0.00000000  0.83333333  0.25000000
  0.00000000  0.83333333  0.33333333
  0.00000000  0.83333333  0.41666667
  0.00000000  0.83333333  0.50000000
  0.00000000  0.83333333  0.58333333
  0.00000000  0.83333333  0.66666667
  0.00000000  0.83333333  0.75000000
  0.00000000  0.83333333  0.83333333
  0.00000000  0.83333333  0.91666667
  0.00000000  0.91666667  0.00000000
  0.00000000  0.91666667  0.08333333
  0.00000000  0.91666667  0.16666667
  0.00000000  0.91666667  0.25000000
  0.00000000  0.91666667  0.33333333
  0.00000000  0.91666667  0.41666667
  0.00000000  0.91666667  0.50000000
  0.00000000  0.91666667  0.58333333
  0.00000000  0.91666667  0.66666667
  0.00000000  0.91666667  0.75000000
  0.00000000  0.91666667  0.83333333
  0.00000000  0.91666667  0.91666667
  0.08333333  0.00000000  0.00000000
  0.08333333  0.00000000  0.08333333
  0.08333333  0.00000000  0.16666667
  0.08333333  0.00000000  0.25000000
  0.08333333  0.00000000  0.33333333
  0.08333333  0.00000000  0.41666667
  0.08333333  0.00000000  0.50000000
  0.08333333  0.00000000  0.58333333
  0.08333333  0.00000000  0.66666667
  0.08333333  0.00000000  0.75000000
  0.08333333  0.00000000  0.83333333
  0.08333333  0.00000000  0.91666667
  0.08333333  0.08333333  0.00000000
  0.08333333  0.08333333  0.08333333
  0.08333333  0.08333333  0.16666667
  0.08333333  0.08333333  0.25000000
  0.08333333  0.08333333  0.33333333
  0.08333333  0.08333333  0.41666667
  0.08333333  0.08333333  0.50000000
  0.08333333  0.08333333  0.58333333
  0.08333333  0.08333333  0.66666667
  0.08333333  0.08333333  0.75000000
  0.08333333  0.08333333  0.83333333
  0.08333333  0.08333333  0.91666667
  0.08333333  0.16666667  0.00000000
  0.08333333  0.16666667  0.08333333
  0.08333333  0.16666667  0.16666667
  0.08333333  0.16666667  0.25000000
  0.08333333  0.16666667  0.33333333
  0.08333333  0.16666667  0.41666667
  0.08333333  0.16666667  0.50000000
  0.08333333  0.16666667  0.58333333
  0.08333333  0.16666667  0.66666667
  0.08333333  0.16666667  0.75000000
  0.08333333  0.16666667  0.83333333
  0.08333333  0.16666667  0.91666667
  0.08333333  0.25000000  0.00000000
  0.08333333  0.25000000  0.08333333
  0.08333333  0.25000000  0.16666667
  0.08333333  0.25000000  0.25000000
  0.08333333  0.25000000  0.33333333
  0.08333333  0.25000000  0.41666667
  0.08333333  0.25000000  0.50000000
  0.08333333  0.25000000  0.58333333
  0.08333333  0.25000000  0.66666667
  0.08333333  0.25000000  0.75000000
  0.08333333  0.25000000  0.83333333
  0.08333333  0.25000000  0.91666667
  0.08333333  0.33333333  0.00000000
  0.08333333  0.33333333  0.08333333
  0.08333333  0.33333333  0.16666667
  0.08333333  0.33333333  0.25000000
  0.08333333  0.33333333  0.33333333
  0.08333333  0.33333333  0.41666667
  0.08333333  0.33333333  0.50000000
  0.08333333  0.33333333  0.58333333
  0.08333333  0.33333333  0.66666667
  0.08333333  0.33333333  0.75000000
  0.08333333  0.33333333  0.83333333
  0.08333333  0.33333333  0.91666667
  0.08333333  0.41666667  0.00000000
  0.08333333  0.41666667  0.08333333
  0.08333333  0.41666667  0.16666667
  0.08333333  0.41666667  0.25000000
  0.08333333  0.41666667  0.33333333
  0.08333333  0.41666667  0.41666667
  0.08333333  0.41666667  0.50000000
  0.08333333  0.41666667  0.58333333
  0.08333333  0.41666667  0.66666667
  0.08333333  0.41666667  0.75000000
  0.08333333  0.41666667  0.83333333
  0.08333333  0.41666667  0.91666667
  0.08333333  0.50000000  0.00000000
  0.08333333  0.50000000  0.08333333
  0.08333333  0.50000000  0.16666667
  0.08333333  0.50000000  0.25000000
  0.08333333  0.50000000  0.33333333
  0.08333333  0.50000000  0.41666667
  0.08333333  0.50000000  0.50000000
  0.08333333  0.50000000  0.58333333
  0.08333333  0.50000000  0.66666667
  0.08333333  0.50000000  0.75000000
  0.08333333  0.50000000  0.83333333
  0.08333333  0.50000000  0.91666667
  0.08333333  0.58333333  0.00000000
  0.08333333  0.58333333  0.08333333
  0.08333333  0.58333333  0.16666667
  0.08333333  0.58333333  0.25000000
  0.08333333  0.58333333  0.33333333
  0.08333333  0.58333333  0.41666667
  0.08333333  0.58333333  0.50000000
  0.08333333  0.58333333  0.58333333
  0.08333333  0.58333333  0.66666667
  0.08333333  0.58333333  0.75000000
  0.08333333  0.58333333  0.83333333
  0.08333333  0.58333333  0.91666667
  0.08333333  0.66666667  0.00000000
  0.08333333  0.66666667  0.08333333
  0.08333333  0.66666667  0.16666667
  0.08333333  0.66666667  0.25000000
  0.08333333  0.66666667  0.33333333
  0.08333333  0.66666667  0.41666667
  0.08333333  0.66666667  0.50000000
  0.08333333  0.66666667  0.58333333
  0.08333333  0.66666667  0.66666667
  0.08333333  0.66666667  0.75000000
  0.08333333  0.66666667  0.83333333
  0.08333333  0.66666667  0.91666667
  0.08333333  0.75000000  0.00000000
  0.08333333  0.75000000  0.08333333
  0.08333333  0.75000000  0.16666667
  0.08333333  0.75000000  0.25000000
  0.08333333  0.75000000  0.33333333
  0.08333333  0.75000000  0.41666667
  0.08333333  0.75000000  0.50000000
  0.08333333  0.75000000  0.58333333
  0.08333333  0.75000000  0.66666667
  0.08333333  0.75000000  0.75000000
  0.08333333  0.75000000  0.83333333
  0.08333333  0.75000000  0.91666667
  0.08333333  0.83333333  0.00000000
  0.08333333  0.83333333  0.08333333
  0.08333333  0.83333333  0.16666667
  0.08333333  0.83333333  0.25000000
  0.08333333  0.83333333  0.33333333
  0.08333333  0.83333333  0.41666667
  0.08333333  0.83333333  0.50000000
  0.08333333  0.83333333  0.58333333
  0.08333333  0.83333333  0.66666667
  0.08333333  0.83333333  0.75000000
  0.08333333  0.83333333  0.83333333
  0.08333333  0.83333333  0.91666667
  0.08333333  0.91666667  0.00000000
  0.08333333  0.91666667  0.08333333
  0.08333333  0.91666667  0.16666667
  0.08333333  0.91666667  0.25000000
  0.08333333  0.91666667  0.33333333
  0.08333333  0.91666667  0.41666667
  0.08333333  0.91666667  0.50000000
  0.08333333  0.91666667  0.58333333
  0.08333333  0.91666667  0.66666667
  0.08333333  0.91666667  0.75000000
  0.08333333  0.91666667  0.83333333
  0.08333333  0.91666667  0.91666667
  0.16666667  0.00000000  0.00000000
  0.16666667  0.00000000  0.08333333
  0.16666667  0.00000000  0.16666667
  0.16666667  0.00000000  0.25000000
  0.16666667  0.00000000  0.33333333
  0.16666667  0.00000000  0.41666667
  0.16666667  0.00000000  0.50000000
  0.16666667  0.00000000  0.58333333
  0.16666667  0.00000000  0.66666667
  0.16666667  0.00000000  0.75000000
  0.16666667  0.00000000  0.83333333
  0.16666667  0.00000000  0.91666667
  0.16666667  0.08333333  0.00000000
  0.16666667  0.08333333  0.08333333
  0.16666667  0.08333333  0.16666667
  0.16666667  0.08333333  0.25000000
  0.16666667  0.08333333  0.33333333
  0.16666667  0.08333333  0.41666667
  0.16666667  0.08333333  0.50000000
  0.16666667  0.08333333  0.58333333
  0.16666667  0.08333333  0.66666667
  0.16666667  0.08333333  0.75000000
  0.16666667  0.08333333  0.83333333
  0.16666667  0.08333333  0.91666667
  0.16666667  0.16666667  0.00000000
  0.16666667  0.16666667  0.08333333
  0.16666667  0.16666667  0.16666667
  0.16666667  0.16666667  0.25000000
  0.16666667  0.16666667  0.33333333
  0.16666667  0.16666667  0.41666667
  0.16666667  0.16666667  0.50000000
  0.16666667  0.16666667  0.58333333
  0.16666667  0.16666667  0.66666667
  0.16666667  0.16666667  0.75000000
  0.16666667  0.16666667  0.83333333
  0.16666667  0.16666667  0.91666667
  0.16666667  0.25000000  0.00000000
  0.16666667  0.25000000  0.08333333
  0.16666667  0.25000000  0.16666667
  0.16666667  0.25000000  0.25000000
  0.16666667  0.25000000  0.33333333
  0.16666667  0.25000000  0.41666667
  0.16666667  0.25000000  0.50000000
  0.16666667  0.25000000  0.58333333
  0.16666667  0.25000000  0.66666667
  0.16666667  0.25000000  0.75000000
  0.16666667  0.25000000  0.83333333
  0.16666667  0.25000000  0.91666667
  0.16666667  0.33333333  0.00000000
  0.16666667  0.33333333  0.08333333
  0.16666667  0.33333333  0.16666667
  0.16666667  0.33333333  0.25000000
  0.16666667  0.33333333  0.33333333
  0.16666667  0.33333333  0.41666667
  0.16666667  0.33333333  0.50000000
  0.16666667  0.33333333  0.58333333
  0.16666667  0.33333333  0.66666667
  0.16666667  0.33333333  0.75000000
  0.16666667  0.33333333  0.83333333
  0.16666667  0.33333333  0.91666667
  0.16666667  0.41666667  0.00000000
  0.16666667  0.41666667  0.08333333
  0.16666667  0.41666667  0.16666667
  0.16666667  0.41666667  0.25000000
  0.16666667  0.41666667  0.33333333
  0.16666667  0.41666667  0.41666667
  0.16666667  0.41666667  0.50000000
  0.16666667  0.41666667  0.58333333
  0.16666667  0.41666667  0.66666667
  0.16666667  0.41666667  0.75000000
  0.16666667  0.41666667  0.83333333
  0.16666667  0.41666667  0.91666667
  0.16666667  0.50000000  0.00000000
  0.16666667  0.50000000  0.08333333
  0.16666667  0.50000000  0.16666667
  0.16666667  0.50000000  0.25000000
  0.16666667  0.50000000  0.33333333
  0.16666667  0.50000000  0.41666667
  0.16666667  0.50000000  0.50000000
  0.16666667  0.50000000  0.58333333
  0.16666667  0.50000000  0.66666667
  0.16666667  0.50000000  0.75000000
  0.16666667  0.50000000  0.83333333
  0.16666667  0.50000000  0.91666667
  0.16666667  0.58333333  0.00000000
  0.16666667  0.58333333  0.08333333
  0.16666667  0.58333333  0.16666667
  0.16666667  0.58333333  0.25000000
  0.16666667  0.58333333  0.33333333
  0.16666667  0.58333333  0.41666667
  0.16666667  0.58333333  0.50000000
  0.16666667  0.58333333  0.58333333
  0.16666667  0.58333333  0.66666667
  0.16666667  0.58333333  0.75000000
  0.16666667  0.58333333  0.83333333
  0.16666667  0.58333333  0.91666667
  0.16666667  0.66666667  0.00000000
  0.16666667  0.66666667  0.08333333
  0.16666667  0.66666667  0.16666667
  0.16666667  0.66666667  0.25000000
  0.16666667  0.66666667  0.33333333
  0.16666667  0.66666667  0.41666667
  0.16666667  0.66666667  0.50000000
  0.16666667  0.66666667  0.58333333
  0.16666667  0.66666667  0.66666667
  0.16666667  0.66666667  0.75000000
  0.16666667  0.66666667  0.83333333
  0.16666667  0.66666667  0.91666667
  0.16666667  0.75000000  0.00000000
  0.16666667  0.75000000  0.08333333
  0.16666667  0.75000000  0.16666667
  0.16666667  0.75000000  0.25000000
  0.16666667  0.75000000  0.33333333
  0.16666667  0.75000000  0.41666667
  0.16666667  0.75000000  0.50000000
  0.16666667  0.75000000  0.58333333
  0.16666667  0.75000000  0.66666667
  0.16666667  0.75000000  0.75000000
  0.16666667  0.75000000  0.83333333
  0.16666667  0.75000000  0.91666667
  0.16666667  0.83333333  0.00000000
  0.16666667  0.83333333  0.08333333
  0.16666667  0.83333333  0.16666667
  0.16666667  0.83333333  0.25000000
  0.16666667  0.83333333  0.33333333
  0.16666667  0.83333333  0.41666667
  0.16666667  0.83333333  0.50000000
  0.16666667  0.83333333  0.58333333
  0.16666667  0.83333333  0.66666667
  0.16666667  0.83333333  0.75000000
  0.16666667  0.83333333  0.83333333
  0.16666667  0.83333333  0.91666667
  0.16666667  0.91666667  0.00000000
  0.16666667  0.91666667  0.08333333
  0.16666667  0.91666667  0.16666667
  0.16666667  0.91666667  0.25000000
  0.16666667  0.91666667  0.33333333
  0.16666667  0.91666667  0.41666667
  0.16666667  0.91666667  0.50000000
  0.16666667  0.91666667  0.58333333
  0.16666667  0.91666667  0.66666667
  0.16666667  0.91666667  0.75000000
  0.16666667  0.91666667  0.83333333
  0.16666667  0.91666667  0.91666667
  0.25000000  0.00000000  0.00000000
  0.25000000  0.00000000  0.08333333
  0.25000000  0.00000000  0.16666667
  0.25000000  0.00000000  0.25000000
  0.25000000  0.00000000  0.33333333
  0.25000000  0.00000000  0.41666667
  0.25000000  0.00000000  0.50000000
  0.25000000  0.00000000  0.58333333
  0.25000000  0.00000000  0.66666667
  0.25000000  0.00000000  0.75000000
  0.25000000  0.00000000  0.83333333
  0.25000000  0.00000000  0.91666667
  0.25000000  0.08333333  0.00000000
  0.25000000  0.08333333  0.08333333
  0.25000000  0.08333333  0.16666667
  0.25000000  0.08333333  0.25000000
  0.25000000  0.08333333  0.33333333
  0.25000000  0.08333333  0.41666667
  0.25000000  0.08333333  0.50000000
  0.25000000  0.08333333  0.58333333
  0.25000000  0.08333333  0.66666667
  0.25000000  0.08333333  0.75000000
  0.25000000  0.08333333  0.83333333
  0.25000000  0.08333333  0.91666667
  0.25000000  0.16666667  0.00000000
  0.25000000  0.16666667  0.08333333
  0.25000000  0.16666667  0.16666667
  0.25000000  0.16666667  0.25000000
  0.25000000  0.16666667  0.33333333
  0.25000000  0.16666667  0.41666667
  0.25000000  0.16666667  0.50000000
  0.25000000  0.16666667  0.58333333
  0.25000000  0.16666667  0.66666667
  0.25000000  0.16666667  0.75000000
  0.25000000  0.16666667  0.83333333
  0.25000000  0.16666667  0.91666667
  0.25000000  0.25000000  0.00000000
  0.25000000  0.25000000  0.08333333
  0.25000000  0.25000000  0.16666667
  0.25000000  0.25000000  0.25000000
  0.25000000  0.25000000  0.33333333
  0.25000000  0.25000000  0.41666667
  0.25000000  0.25000000  0.50000000
  0.25000000  0.25000000  0.58333333
  0.25000000  0.25000000  0.66666667
  0.25000000  0.25000000  0.75000000
  0.25000000  0.25000000  0.83333333
  0.25000000  0.25000000  0.91666667
  0.25000000  0.33333333  0.00000000
  0.25000000  0.33333333  0.08333333
  0.25000000  0.33333333  0.16666667
  0.25000000  0.33333333  0.25000000
  0.25000000  0.33333333  0.33333333
  0.25000000  0.33333333  0.41666667
  0.25000000  0.33333333  0.50000000
  0.25000000  0.33333333  0.58333333
  0.25000000  0.33333333  0.66666667
  0.25000000  0.33333333  0.75000000
  0.25000000  0.33333333  0.83333333
  0.25000000  0.33333333  0.91666667
  0.25000000  0.41666667  0.00000000
  0.25000000  0.41666667  0.08333333
  0.25000000  0.41666667  0.16666667
  0.25000000  0.41666667  0.25000000
  0.25000000  0.41666667  0.33333333
  0.25000000  0.41666667  0.41666667
  0.25000000  0.41666667  0.50000000
  0.25000000  0.41666667  0.58333333
  0.25000000  0.41666667  0.66666667
  0.25000000  0.41666667  0.75000000
  0.25000000  0.41666667  0.83333333
  0.25000000  0.41666667  0.91666667
  0.25000000  0.50000000  0.00000000
  0.25000000  0.50000000  0.08333333
  0.25000000  0.50000000  0.16666667
  0.25000000  0.50000000  0.25000000
  0.25000000  0.50000000  0.33333333
  0.25000000  0.50000000  0.41666667
  0.25000000  0.50000000  0.50000000
  0.25000000  0.50000000  0.58333333
  0.25000000  0.50000000  0.66666667
  0.25000000  0.50000000  0.75000000
  0.25000000  0.50000000  0.83333333
  0.25000000  0.50000000  0.91666667
  0.25000000  0.58333333  0.00000000
  0.25000000  0.58333333  0.08333333
  0.25000000  0.58333333  0.16666667
  0.25000000  0.58333333  0.25000000
  0.25000000  0.58333333  0.33333333
  0.25000000  0.58333333  0.41666667
  0.25000000  0.58333333  0.50000000
  0.25000000  0.58333333  0.58333333
  0.25000000  0.58333333  0.66666667
  0.25000000  0.58333333  0.75000000
  0.25000000  0.58333333  0.83333333
  0.25000000  0.58333333  0.91666667
  0.25000000  0.66666667  0.00000000
  0.25000000  0.66666667  0.08333333
  0.25000000  0.66666667  0.16666667
  0.25000000  0.66666667  0.25000000
  0.25000000  0.66666667  0.33333333
  0.25000000  0.66666667  0.41666667
  0.25000000  0.66666667  0.50000000
  0.25000000  0.66666667  0.58333333
  0.25000000  0.66666667  0.66666667
  0.25000000  0.66666667  0.75000000
  0.25000000  0.66666667  0.83333333
  0.25000000  0.66666667  0.91666667
  0.25000000  0.75000000  0.00000000
  0.25000000  0.75000000  0.08333333
  0.25000000  0.75000000  0.16666667
  0.25000000  0.75000000  0.25000000
  0.25000000  0.75000000  0.33333333
  0.25000000  0.75000000  0.41666667
  0.25000000  0.75000000  0.50000000
  0.25000000  0.75000000  0.58333333
  0.25000000  0.75000000  0.66666667
  0.25000000  0.75000000  0.75000000
  0.25000000  0.75000000  0.83333333
  0.25000000  0.75000000  0.91666667
  0.25000000  0.83333333  0.00000000
  0.25000000  0.83333333  0.08333333
  0.25000000  0.83333333  0.16666667
  0.25000000  0.83333333  0.25000000
  0.25000000  0.83333333  0.33333333
  0.25000000  0.83333333  0.41666667
  0.25000000  0.83333333  0.50000000
  0.25000000  0.83333333  0.58333333
  0.25000000  0.83333333  0.66666667
  0.25000000  0.83333333  0.75000000
  0.25000000  0.83333333  0.83333333
  0.25000000  0.83333333  0.91666667
  0.25000000  0.91666667  0.00000000
  0.25000000  0.91666667  0.08333333
  0.25000000  0.91666667  0.16666667
  0.25000000  0.91666667  0.25000000
  0.25000000  0.91666667  0.33333333
  0.25000000  0.91666667  0.41666667
  0.25000000  0.91666667  0.50000000
  0.25000000  0.91666667  0.58333333
  0.25000000  0.91666667  0.66666667
  0.25000000  0.91666667  0.75000000
  0.25000000  0.91666667  0.83333333
  0.25000000  0.91666667  0.91666667
  0.33333333  0.00000000  0.00000000
  0.33333333  0.00000000  0.08333333
  0.33333333  0.00000000  0.16666667
  0.33333333  0.00000000  0.25000000
  0.33333333  0.00000000  0.33333333
  0.33333333  0.00000000  0.41666667
  0.33333333  0.00000000  0.50000000
  0.33333333  0.00000000  0.58333333
  0.33333333  0.00000000  0.66666667
  0.33333333  0.00000000  0.75000000
  0.33333333  0.00000000  0.83333333
  0.33333333  0.00000000  0.91666667
  0.33333333  0.08333333  0.00000000
  0.33333333  0.08333333  0.08333333
  0.33333333  0.08333333  0.16666667
  0.33333333  0.08333333  0.25000000
  0.33333333  0.08333333  0.33333333
  0.33333333  0.08333333  0.41666667
  0.33333333  0.08333333  0.50000000
  0.33333333  0.08333333  0.58333333
  0.33333333  0.08333333  0.66666667
  0.33333333  0.08333333  0.75000000
  0.33333333  0.08333333  0.83333333
  0.33333333  0.08333333  0.91666667
  0.33333333  0.16666667  0.00000000
  0.33333333  0.16666667  0.08333333
  0.33333333  0.16666667  0.16666667
  0.33333333  0.16666667  0.25000000
  0.33333333  0.16666667  0.33333333
  0.33333333  0.16666667  0.41666667
  0.33333333  0.16666667  0.50000000
  0.33333333  0.16666667  0.58333333
  0.33333333  0.16666667  0.66666667
  0.33333333  0.16666667  0.75000000
  0.33333333  0.16666667  0.83333333
  0.33333333  0.16666667  0.91666667
  0.33333333  0.25000000  0.00000000
  0.33333333  0.25000000  0.08333333
  0.33333333  0.25000000  0.16666667
  0.33333333  0.25000000  0.25000000
  0.33333333  0.25000000  0.33333333
  0.33333333  0.25000000  0.41666667
  0.33333333  0.25000000  0.50000000
  0.33333333  0.25000000  0.58333333
  0.33333333  0.25000000  0.66666667
  0.33333333  0.25000000  0.75000000
  0.33333333  0.25000000  0.83333333
  0.33333333  0.25000000  0.91666667
  0.33333333  0.33333333  0.00000000
  0.33333333  0.33333333  0.08333333
  0.33333333  0.33333333  0.16666667
  0.33333333  0.33333333  0.25000000
  0.33333333  0.33333333  0.33333333
  0.33333333  0.33333333  0.41666667
  0.33333333  0.33333333  0.50000000
  0.33333333  0.33333333  0.58333333
  0.33333333  0.33333333  0.66666667
  0.33333333  0.33333333  0.75000000
  0.33333333  0.33333333  0.83333333
  0.33333333  0.33333333  0.91666667
  0.33333333  0.41666667  0.00000000
  0.33333333  0.41666667  0.08333333
  0.33333333  0.41666667  0.16666667
  0.33333333  0.41666667  0.25000000
  0.33333333  0.41666667  0.33333333
  0.33333333  0.41666667  0.41666667
  0.33333333  0.41666667  0.50000000
  0.33333333  0.41666667  0.58333333
  0.33333333  0.41666667  0.66666667
  0.33333333  0.41666667  0.75000000
  0.33333333  0.41666667  0.83333333
  0.33333333  0.41666667  0.91666667
  0.33333333  0.50000000  0.00000000
  0.33333333  0.50000000  0.08333333
  0.33333333  0.50000000  0.16666667
  0.33333333  0.50000000  0.25000000
  0.33333333  0.50000000  0.33333333
  0.33333333  0.50000000  0.41666667
  0.33333333  0.50000000  0.50000000
  0.33333333  0.50000000  0.58333333
  0.33333333  0.50000000  0.66666667
  0.33333333  0.50000000  0.75000000
  0.33333333  0.50000000  0.83333333
  0.33333333  0.50000000  0.91666667
  0.33333333  0.58333333  0.00000000
  0.33333333  0.58333333  0.08333333
  0.33333333  0.58333333  0.16666667
  0.33333333  0.58333333  0.25000000
  0.33333333  0.58333333  0.33333333
  0.33333333  0.58333333  0.41666667
  0.33333333  0.58333333  0.50000000
  0.33333333  0.58333333  0.58333333
  0.33333333  0.58333333  0.66666667
  0.33333333  0.58333333  0.75000000
  0.33333333  0.58333333  0.83333333
  0.33333333  0.58333333  0.91666667
  0.33333333  0.66666667  0.00000000
  0.33333333  0.66666667  0.08333333
  0.33333333  0.66666667  0.16666667
  0.33333333  0.66666667  0.25000000
  0.33333333  0.66666667  0.33333333
  0.33333333  0.66666667  0.41666667
  0.33333333  0.66666667  0.50000000
  0.33333333  0.66666667  0.58333333
  0.33333333  0.66666667  0.66666667
  0.33333333  0.66666667  0.75000000
  0.33333333  0.66666667  0.83333333
  0.33333333  0.66666667  0.91666667
  0.33333333  0.75000000  0.00000000
  0.33333333  0.75000000  0.08333333
  0.33333333  0.75000000  0.16666667
  0.33333333  0.75000000  0.25000000
  0.33333333  0.75000000  0.33333333
  0.33333333  0.75000000  0.41666667
  0.33333333  0.75000000  0.50000000
  0.33333333  0.75000000  0.58333333
  0.33333333  0.75000000  0.66666667
  0.33333333  0.75000000  0.75000000
  0.33333333  0.75000000  0.83333333
  0.33333333  0.75000000  0.91666667
  0.33333333  0.83333333  0.00000000
  0.33333333  0.83333333  0.08333333
  0.33333333  0.83333333  0.16666667
  0.33333333  0.83333333  0.25000000
  0.33333333  0.83333333  0.33333333
  0.33333333  0.83333333  0.41666667
  0.33333333  0.83333333  0.50000000
  0.33333333  0.83333333  0.58333333
  0.33333333  0.83333333  0.66666667
  0.33333333  0.83333333  0.75000000
  0.33333333  0.83333333  0.83333333
  0.33333333  0.83333333  0.91666667
  0.33333333  0.91666667  0.00000000
  0.33333333  0.91666667  0.08333333
  0.33333333  0.91666667  0.16666667
  0.33333333  0.91666667  0.25000000
  0.33333333  0.91666667  0.33333333
  0.33333333  0.91666667  0.41666667
  0.33333333  0.91666667  0.50000000
  0.33333333  0.91666667  0.58333333
  0.33333333  0.91666667  0.66666667
  0.33333333  0.91666667  0.75000000
  0.33333333  0.91666667  0.83333333
  0.33333333  0.91666667  0.91666667
  0.41666667  0.00000000  0.00000000
  0.41666667  0.00000000  0.08333333
  0.41666667  0.00000000  0.16666667
  0.41666667  0.00000000  0.25000000
  0.41666667  0.00000000  0.33333333
  0.41666667  0.00000000  0.41666667
  0.41666667  0.00000000  0.50000000
  0.41666667  0.00000000  0.58333333
  0.41666667  0.00000000  0.66666667
  0.41666667  0.00000000  0.75000000
  0.41666667  0.00000000  0.83333333
  0.41666667  0.00000000  0.91666667
  0.41666667  0.08333333  0.00000000
  0.41666667  0.08333333  0.08333333
  0.41666667  0.08333333  0.16666667
  0.41666667  0.08333333  0.25000000
  0.41666667  0.08333333  0.33333333
  0.41666667  0.08333333  0.41666667
  0.41666667  0.08333333  0.50000000
  0.41666667  0.08333333  0.58333333
  0.41666667  0.08333333  0.66666667
  0.41666667  0.08333333  0.75000000
  0.41666667  0.08333333  0.83333333
  0.41666667  0.08333333  0.91666667
  0.41666667  0.16666667  0.00000000
  0.41666667  0.16666667  0.08333333
  0.41666667  0.16666667  0.16666667
  0.41666667  0.16666667  0.25000000
  0.41666667  0.16666667  0.33333333
  0.41666667  0.16666667  0.41666667
  0.41666667  0.16666667  0.50000000
  0.41666667  0.16666667  0.58333333
  0.41666667  0.16666667  0.66666667
  0.41666667  0.16666667  0.75000000
  0.41666667  0.16666667  0.83333333
  0.41666667  0.16666667  0.91666667
  0.41666667  0.25000000  0.00000000
  0.41666667  0.25000000  0.08333333
  0.41666667  0.25000000  0.16666667
  0.41666667  0.25000000  0.25000000
  0.41666667  0.25000000  0.33333333
  0.41666667  0.25000000  0.41666667
  0.41666667  0.25000000  0.50000000
  0.41666667  0.25000000  0.58333333
  0.41666667  0.25000000  0.66666667
  0.41666667  0.25000000  0.75000000
  0.41666667  0.25000000  0.83333333
  0.41666667  0.25000000  0.91666667
  0.41666667  0.33333333  0.00000000
  0.41666667  0.33333333  0.08333333
  0.41666667  0.33333333  0.16666667
  0.41666667  0.33333333  0.25000000
  0.41666667  0.33333333  0.33333333
  0.41666667  0.33333333  0.41666667
  0.41666667  0.33333333  0.50000000
  0.41666667  0.33333333  0.58333333
  0.41666667  0.33333333  0.66666667
  0.41666667  0.33333333  0.75000000
  0.41666667  0.33333333  0.83333333
  0.41666667  0.33333333  0.91666667
  0.41666667  0.41666667  0.00000000
  0.41666667  0.41666667  0.08333333
  0.41666667  0.41666667  0.16666667
  0.41666667  0.41666667  0.25000000
  0.41666667  0.41666667  0.33333333
  0.41666667  0.41666667  0.41666667
  0.41666667  0.41666667  0.50000000
  0.41666667  0.41666667  0.58333333
  0.41666667  0.41666667  0.66666667
  0.41666667  0.41666667  0.75000000
  0.41666667  0.41666667  0.83333333
  0.41666667  0.41666667  0.91666667
  0.41666667  0.50000000  0.00000000
  0.41666667  0.50000000  0.08333333
  0.41666667  0.50000000  0.16666667
  0.41666667  0.50000000  0.25000000
  0.41666667  0.50000000  0.33333333
  0.41666667  0.50000000  0.41666667
  0.41666667  0.50000000  0.50000000
  0.41666667  0.50000000  0.58333333