Na1 I1
1.0
  -3.2186564390934009    0.0000000000000000    3.2186564390934009
   0.0000000000000000    3.2186564390934009    3.2186564390934009
  -3.2186564390934009    3.2186564390934009    0.0000000000000000
Na I
1 1
direct
   0.0000000000000000    0.0000000000000000    0.0000000000000000 Na
   0.4999999615946624    0.5000000384053376    0.4999999615946624 I
