Sb8 Se12
1.0
   4.0015565626377390    0.0000000000000000    0.0000000000000000
   0.0000000000000000   11.7136288102682631    0.0000000000000000
   0.0000000000000000    0.0000000000000000   12.3620722504608835
Sb Se
8 12
direct
   0.7500000576080063    0.0380946029260719    0.1403223807782560 Sb
   0.2500000192026692    0.9619054738846030    0.8596776960324192 Sb
   0.2500000192026691    0.5380946413314094    0.3596776576270816 Sb
   0.7500000576080065    0.4619054354792656    0.6403224191835937 Sb
   0.2500000192026690    0.3295914053161363    0.0338128425971871 Sb
   0.7500000576080066    0.6704086714945386    0.9661872342134881 Sb
   0.7500000576080067    0.8295914437214739    0.4661871958081505 Sb
   0.2500000192026688    0.1704086330892012    0.5338128810025246 Sb
   0.7500000576080064    0.1275253697953090    0.9483452728430350 Se
   0.2500000192026692    0.8724747070153660    0.0516548039676401 Se
   0.2500000192026691    0.6275254082006465    0.5516548423729777 Se
   0.7500000576080065    0.3724746686100285    0.4483452344376974 Se
   0.2500000192026689    0.1921006847553822    0.2053313357716373 Se
   0.7500000576080066    0.8078993920552929    0.7946687410390377 Se
   0.7500000576080066    0.6921007231607197    0.2946687026337003 Se
   0.2500000192026690    0.3078993536499554    0.7053313741769749 Se
   0.7500000576080063    0.0540986941553569    0.6273491981871118 Se
   0.2500000192026692    0.9459013826553182    0.3726508786235634 Se
   0.2500000192026691    0.5540987325606944    0.8726509170289010 Se
   0.7500000576080065    0.4459013442499806    0.1273491597817744 Se
