&inputpp
    prefix = 'mp-804'
    outdir='out/',
    plot_num=10,
    emin = 12.662665892246867,
    emax = 13.662665892246867,
    delta_e = 0.1,
/
&plot
    iflag=3,
    output_format=6,
    fileout='ldos.cube',
/
