&CONTROL
  calculation = 'nscf',
  disk_io = 'medium',
  outdir = 'out/',
  prefix = 'mp-149',
  pseudo_dir = '/usr/scratch4/magr4985/MG/devEb/pseudo/SG15',
/
&SYSTEM
  celldm(1) = 10.287105848232438,
  degauss = 0.0004593661607577953,
  ecutwfc = 130,
  force_symmorphic = .FALSE.,
  ibrav = 2,
  nbnd = 8,
  nosym = .FALSE.,
  occupations = 'smearing',
  smearing = 'gaussian',
  nat = 2,
  ntyp = 1,
/
&ELECTRONS
  conv_thr = 1d-10,
  diago_full_acc = .TRUE.,
  diago_thr_init = 5d-06,
  diagonalization = 'david',
/
&IONS
/
&CELL
/
ATOMIC_SPECIES
  Si  28.0855 Si.upf
ATOMIC_POSITIONS crystal
  Si 0.24999994 0.25000010 0.25000002
  Si 0.50000004 0.50000004 0.49999996
K_POINTS automatic
  24 24 24 0 0 0

