&inputpp
    prefix = 'mp-1138'
    outdir='out/',
    plot_num=10,
    emin = 9.383794220036515,
    emax = 10.383794220036515,
    delta_e = 0.1,
/
&plot
    iflag=3,
    output_format=6,
    fileout='ldos.cube',
/
