Al2 N2
1.0
   3.1285878956678030    0.0000000000000000    0.0000000000000000
  -1.5642939478339015    2.7094365956208164    0.0000000000000000
   0.0000000000000000    0.0000000000000000    5.0169546146443293
Al N
2 2
direct
   0.3333333589368918    0.6666666410631084    0.4992870383505719 Al
   0.6666667178737834    0.3333333589368917    0.9992870767559093 Al
   0.3333333589368918    0.6666666410631084    0.8807130676481603 N
   0.6666667178737834    0.3333333589368917    0.3807130292428226 N
