Ba1 O1
1.0
  -2.7903914951863080    0.0000000000000000    2.7903914951863080
   0.0000000000000000    2.7903914951863080    2.7903914951863080
  -2.7903914951863080    2.7903914951863080    0.0000000000000000
Ba O
1 1
direct
   0.0000000000000000    0.0000000000000000    0.0000000000000000 Ba
   0.4999999615946624    0.5000000384053376    0.4999999615946624 O
