num_wann = 24
exclude_bands = 1-32 57-112
num_iter = 500

auto_projections =.true.

begin atoms_frac
Pb 0.25000001920266884 0.2636527102513412 0.9094460498551598
Pb 0.7500000576080065 0.736347366559334 0.09055402695551548
Pb 0.25000001920266895 0.7636527486566788 0.590554065360853
Pb 0.7500000576080064 0.23634732815399645 0.4094460114498223
Cl 0.25000001920266895 0.4827690270818119 0.15764770210902565
Cl 0.7500000576080064 0.5172310497288632 0.8423523747016496
Cl 0.250000019202669 0.9827690654871495 0.342352336296312
Cl 0.7500000576080063 0.01723101132352567 0.6576477405143631
Cl 0.7500000576080065 0.6414613992710795 0.422626652462236
Cl 0.2500000192026689 0.3585386775395958 0.5773734243484391
Cl 0.7500000576080063 0.14146136086574196 0.07737338594310163
Cl 0.250000019202669 0.8585387159449333 0.9226266908675734
end atoms_frac

geninterp = true
geninterp_alsofirstder = true

begin unit_cell_cart
4.548026 0.000000 0.000000
0.000000 7.671511 0.000000
0.000000 0.000000 9.171109
end unit_cell_cart

mp_grid : 10 6 4

begin kpoints
  0.00000000  0.00000000  0.00000000
  0.00000000  0.00000000  0.25000000
  0.00000000  0.00000000  0.50000000
  0.00000000  0.00000000  0.75000000
  0.00000000  0.16666667  0.00000000
  0.00000000  0.16666667  0.25000000
  0.00000000  0.16666667  0.50000000
  0.00000000  0.16666667  0.75000000
  0.00000000  0.33333333  0.00000000
  0.00000000  0.33333333  0.25000000
  0.00000000  0.33333333  0.50000000
  0.00000000  0.33333333  0.75000000
  0.00000000  0.50000000  0.00000000
  0.00000000  0.50000000  0.25000000
  0.00000000  0.50000000  0.50000000
  0.00000000  0.50000000  0.75000000
  0.00000000  0.66666667  0.00000000
  0.00000000  0.66666667  0.25000000
  0.00000000  0.66666667  0.50000000
  0.00000000  0.66666667  0.75000000
  0.00000000  0.83333333  0.00000000
  0.00000000  0.83333333  0.25000000
  0.00000000  0.83333333  0.50000000
  0.00000000  0.83333333  0.75000000
  0.10000000  0.00000000  0.00000000
  0.10000000  0.00000000  0.25000000
  0.10000000  0.00000000  0.50000000
  0.10000000  0.00000000  0.75000000
  0.10000000  0.16666667  0.00000000
  0.10000000  0.16666667  0.25000000
  0.10000000  0.16666667  0.50000000
  0.10000000  0.16666667  0.75000000
  0.10000000  0.33333333  0.00000000
  0.10000000  0.33333333  0.25000000
  0.10000000  0.33333333  0.50000000
  0.10000000  0.33333333  0.75000000
  0.10000000  0.50000000  0.00000000
  0.10000000  0.50000000  0.25000000
  0.10000000  0.50000000  0.50000000
  0.10000000  0.50000000  0.75000000
  0.10000000  0.66666667  0.00000000
  0.10000000  0.66666667  0.25000000
  0.10000000  0.66666667  0.50000000
  0.10000000  0.66666667  0.75000000
  0.10000000  0.83333333  0.00000000
  0.10000000  0.83333333  0.25000000
  0.10000000  0.83333333  0.50000000
  0.10000000  0.83333333  0.75000000
  0.20000000  0.00000000  0.00000000
  0.20000000  0.00000000  0.25000000
  0.20000000  0.00000000  0.50000000
  0.20000000  0.00000000  0.75000000
  0.20000000  0.16666667  0.00000000
  0.20000000  0.16666667  0.25000000
  0.20000000  0.16666667  0.50000000
  0.20000000  0.16666667  0.75000000
  0.20000000  0.33333333  0.00000000
  0.20000000  0.33333333  0.25000000
  0.20000000  0.33333333  0.50000000
  0.20000000  0.33333333  0.75000000
  0.20000000  0.50000000  0.00000000
  0.20000000  0.50000000  0.25000000
  0.20000000  0.50000000  0.50000000
  0.20000000  0.50000000  0.75000000
  0.20000000  0.66666667  0.00000000
  0.20000000  0.66666667  0.25000000
  0.20000000  0.66666667  0.50000000
  0.20000000  0.66666667  0.75000000
  0.20000000  0.83333333  0.00000000
  0.20000000  0.83333333  0.25000000
  0.20000000  0.83333333  0.50000000
  0.20000000  0.83333333  0.75000000
  0.30000000  0.00000000  0.00000000
  0.30000000  0.00000000  0.25000000
  0.30000000  0.00000000  0.50000000
  0.30000000  0.00000000  0.75000000
  0.30000000  0.16666667  0.00000000
  0.30000000  0.16666667  0.25000000
  0.30000000  0.16666667  0.50000000
  0.30000000  0.16666667  0.75000000
  0.30000000  0.33333333  0.00000000
  0.30000000  0.33333333  0.25000000
  0.30000000  0.33333333  0.50000000
  0.30000000  0.33333333  0.75000000
  0.30000000  0.50000000  0.00000000
  0.30000000  0.50000000  0.25000000
  0.30000000  0.50000000  0.50000000
  0.30000000  0.50000000  0.75000000
  0.30000000  0.66666667  0.00000000
  0.30000000  0.66666667  0.25000000
  0.30000000  0.66666667  0.50000000
  0.30000000  0.66666667  0.75000000
  0.30000000  0.83333333  0.00000000
  0.30000000  0.83333333  0.25000000
  0.30000000  0.83333333  0.50000000
  0.30000000  0.83333333  0.75000000
  0.40000000  0.00000000  0.00000000
  0.40000000  0.00000000  0.25000000
  0.40000000  0.00000000  0.50000000
  0.40000000  0.00000000  0.75000000
  0.40000000  0.16666667  0.00000000
  0.40000000  0.16666667  0.25000000
  0.40000000  0.16666667  0.50000000
  0.40000000  0.16666667  0.75000000
  0.40000000  0.33333333  0.00000000
  0.40000000  0.33333333  0.25000000
  0.40000000  0.33333333  0.50000000
  0.40000000  0.33333333  0.75000000
  0.40000000  0.50000000  0.00000000
  0.40000000  0.50000000  0.25000000
  0.40000000  0.50000000  0.50000000
  0.40000000  0.50000000  0.75000000
  0.40000000  0.66666667  0.00000000
  0.40000000  0.66666667  0.25000000
  0.40000000  0.66666667  0.50000000
  0.40000000  0.66666667  0.75000000
  0.40000000  0.83333333  0.00000000
  0.40000000  0.83333333  0.25000000
  0.40000000  0.83333333  0.50000000
  0.40000000  0.83333333  0.75000000
  0.50000000  0.00000000  0.00000000
  0.50000000  0.00000000  0.25000000
  0.50000000  0.00000000  0.50000000
  0.50000000  0.00000000  0.75000000
  0.50000000  0.16666667  0.00000000
  0.50000000  0.16666667  0.25000000
  0.50000000  0.16666667  0.50000000
  0.50000000  0.16666667  0.75000000
  0.50000000  0.33333333  0.00000000
  0.50000000  0.33333333  0.25000000
  0.50000000  0.33333333  0.50000000
  0.50000000  0.33333333  0.75000000
  0.50000000  0.50000000  0.00000000
  0.50000000  0.50000000  0.25000000
  0.50000000  0.50000000  0.50000000
  0.50000000  0.50000000  0.75000000
  0.50000000  0.66666667  0.00000000
  0.50000000  0.66666667  0.25000000
  0.50000000  0.66666667  0.50000000
  0.50000000  0.66666667  0.75000000
  0.50000000  0.83333333  0.00000000
  0.50000000  0.83333333  0.25000000
  0.50000000  0.83333333  0.50000000
  0.50000000  0.83333333  0.75000000
  0.60000000  0.00000000  0.00000000
  0.60000000  0.00000000  0.25000000
  0.60000000  0.00000000  0.50000000
  0.60000000  0.00000000  0.75000000
  0.60000000  0.16666667  0.00000000
  0.60000000  0.16666667  0.25000000
  0.60000000  0.16666667  0.50000000
  0.60000000  0.16666667  0.75000000
  0.60000000  0.33333333  0.00000000
  0.60000000  0.33333333  0.25000000
  0.60000000  0.33333333  0.50000000
  0.60000000  0.33333333  0.75000000
  0.60000000  0.50000000  0.00000000
  0.60000000  0.50000000  0.25000000
  0.60000000  0.50000000  0.50000000
  0.60000000  0.50000000  0.75000000
  0.60000000  0.66666667  0.00000000
  0.60000000  0.66666667  0.25000000
  0.60000000  0.66666667  0.50000000
  0.60000000  0.66666667  0.75000000
  0.60000000  0.83333333  0.00000000
  0.60000000  0.83333333  0.25000000
  0.60000000  0.83333333  0.50000000
  0.60000000  0.83333333  0.75000000
  0.70000000  0.00000000  0.00000000
  0.70000000  0.00000000  0.25000000
  0.70000000  0.00000000  0.50000000
  0.70000000  0.00000000  0.75000000
  0.70000000  0.16666667  0.00000000
  0.70000000  0.16666667  0.25000000
  0.70000000  0.16666667  0.50000000
  0.70000000  0.16666667  0.75000000
  0.70000000  0.33333333  0.00000000
  0.70000000  0.33333333  0.25000000
  0.70000000  0.33333333  0.50000000
  0.70000000  0.33333333  0.75000000
  0.70000000  0.50000000  0.00000000
  0.70000000  0.50000000  0.25000000
  0.70000000  0.50000000  0.50000000
  0.70000000  0.50000000  0.75000000
  0.70000000  0.66666667  0.00000000
  0.70000000  0.66666667  0.25000000
  0.70000000  0.66666667  0.50000000
  0.70000000  0.66666667  0.75000000
  0.70000000  0.83333333  0.00000000
  0.70000000  0.83333333  0.25000000
  0.70000000  0.83333333  0.50000000
  0.70000000  0.83333333  0.75000000
  0.80000000  0.00000000  0.00000000
  0.80000000  0.00000000  0.25000000
  0.80000000  0.00000000  0.50000000
  0.80000000  0.00000000  0.75000000
  0.80000000  0.16666667  0.00000000
  0.80000000  0.16666667  0.25000000
  0.80000000  0.16666667  0.50000000
  0.80000000  0.16666667  0.75000000
  0.80000000  0.33333333  0.00000000
  0.80000000  0.33333333  0.25000000
  0.80000000  0.33333333  0.50000000
  0.80000000  0.33333333  0.75000000
  0.80000000  0.50000000  0.00000000
  0.80000000  0.50000000  0.25000000
  0.80000000  0.50000000  0.50000000
  0.80000000  0.50000000  0.75000000
  0.80000000  0.66666667  0.00000000
  0.80000000  0.66666667  0.25000000
  0.80000000  0.66666667  0.50000000
  0.80000000  0.66666667  0.75000000
  0.80000000  0.83333333  0.00000000
  0.80000000  0.83333333  0.25000000
  0.80000000  0.83333333  0.50000000
  0.80000000  0.83333333  0.75000000
  0.90000000  0.00000000  0.00000000
  0.90000000  0.00000000  0.25000000
  0.90000000  0.00000000  0.50000000
  0.90000000  0.00000000  0.75000000
  0.90000000  0.16666667  0.00000000
  0.90000000  0.16666667  0.25000000
  0.90000000  0.16666667  0.50000000
  0.90000000  0.16666667  0.75000000
  0.90000000  0.33333333  0.00000000
  0.90000000  0.33333333  0.25000000
  0.90000000  0.33333333  0.50000000
  0.90000000  0.33333333  0.75000000
  0.90000000  0.50000000  0.00000000
  0.90000000  0.50000000  0.25000000
  0.90000000  0.50000000  0.50000000
  0.90000000  0.50000000  0.75000000
  0.90000000  0.66666667  0.00000000
  0.90000000  0.66666667  0.25000000
  0.90000000  0.66666667  0.50000000
  0.90000000  0.66666667  0.75000000
  0.90000000  0.83333333  0.00000000
  0.90000000  0.83333333  0.25000000
  0.90000000  0.83333333  0.50000000
  0.90000000  0.83333333  0.75000000
end kpoints

