&CONTROL
  calculation = 'nscf',
  disk_io = 'low',
  outdir = 'out/',
  prefix = 'mp-23291',
  pseudo_dir = '/usr/scratch4/magr4985/MG/devEb/pseudo/SG15',
/
&SYSTEM
  celldm(1) = 8.594523836001121,
  celldm(2) = 1.6867781913178306,
  celldm(3) = 2.016503136103113,
  degauss = 0.0004593661607577953,
  ecutwfc = 65,
  force_symmorphic = .FALSE.,
  ibrav = 8,
  nbnd = 112,
  nosym = .TRUE.,
  occupations = 'smearing',
  smearing = 'gaussian',
  nat = 12,
  ntyp = 2,
/
&ELECTRONS
  conv_thr = 1d-10,
  diago_full_acc = .TRUE.,
  diago_thr_init = 5d-06,
  diagonalization = 'david',
/
&IONS
/
&CELL
/
ATOMIC_SPECIES
  Cl  35.4530 Cl.upf
  Pb  207.2000 Pb.upf
ATOMIC_POSITIONS crystal
  Pb 0.25000002 0.26365271 0.90944605
  Pb 0.75000006 0.73634737 0.09055403
  Pb 0.25000002 0.76365275 0.59055407
  Pb 0.75000006 0.23634733 0.40944601
  Cl 0.25000002 0.48276903 0.15764770
  Cl 0.75000006 0.51723105 0.84235237
  Cl 0.25000002 0.98276907 0.34235234
  Cl 0.75000006 0.01723101 0.65764774
  Cl 0.75000006 0.64146140 0.42262665
  Cl 0.25000002 0.35853868 0.57737342
  Cl 0.75000006 0.14146136 0.07737339
  Cl 0.25000002 0.85853872 0.92262669
K_POINTS crystal
240
  0.00000000  0.00000000  0.00000000  4.166667e-03
  0.00000000  0.00000000  0.25000000  4.166667e-03
  0.00000000  0.00000000  0.50000000  4.166667e-03
  0.00000000  0.00000000  0.75000000  4.166667e-03
  0.00000000  0.16666667  0.00000000  4.166667e-03
  0.00000000  0.16666667  0.25000000  4.166667e-03
  0.00000000  0.16666667  0.50000000  4.166667e-03
  0.00000000  0.16666667  0.75000000  4.166667e-03
  0.00000000  0.33333333  0.00000000  4.166667e-03
  0.00000000  0.33333333  0.25000000  4.166667e-03
  0.00000000  0.33333333  0.50000000  4.166667e-03
  0.00000000  0.33333333  0.75000000  4.166667e-03
  0.00000000  0.50000000  0.00000000  4.166667e-03
  0.00000000  0.50000000  0.25000000  4.166667e-03
  0.00000000  0.50000000  0.50000000  4.166667e-03
  0.00000000  0.50000000  0.75000000  4.166667e-03
  0.00000000  0.66666667  0.00000000  4.166667e-03
  0.00000000  0.66666667  0.25000000  4.166667e-03
  0.00000000  0.66666667  0.50000000  4.166667e-03
  0.00000000  0.66666667  0.75000000  4.166667e-03
  0.00000000  0.83333333  0.00000000  4.166667e-03
  0.00000000  0.83333333  0.25000000  4.166667e-03
  0.00000000  0.83333333  0.50000000  4.166667e-03
  0.00000000  0.83333333  0.75000000  4.166667e-03
  0.10000000  0.00000000  0.00000000  4.166667e-03
  0.10000000  0.00000000  0.25000000  4.166667e-03
  0.10000000  0.00000000  0.50000000  4.166667e-03
  0.10000000  0.00000000  0.75000000  4.166667e-03
  0.10000000  0.16666667  0.00000000  4.166667e-03
  0.10000000  0.16666667  0.25000000  4.166667e-03
  0.10000000  0.16666667  0.50000000  4.166667e-03
  0.10000000  0.16666667  0.75000000  4.166667e-03
  0.10000000  0.33333333  0.00000000  4.166667e-03
  0.10000000  0.33333333  0.25000000  4.166667e-03
  0.10000000  0.33333333  0.50000000  4.166667e-03
  0.10000000  0.33333333  0.75000000  4.166667e-03
  0.10000000  0.50000000  0.00000000  4.166667e-03
  0.10000000  0.50000000  0.25000000  4.166667e-03
  0.10000000  0.50000000  0.50000000  4.166667e-03
  0.10000000  0.50000000  0.75000000  4.166667e-03
  0.10000000  0.66666667  0.00000000  4.166667e-03
  0.10000000  0.66666667  0.25000000  4.166667e-03
  0.10000000  0.66666667  0.50000000  4.166667e-03
  0.10000000  0.66666667  0.75000000  4.166667e-03
  0.10000000  0.83333333  0.00000000  4.166667e-03
  0.10000000  0.83333333  0.25000000  4.166667e-03
  0.10000000  0.83333333  0.50000000  4.166667e-03
  0.10000000  0.83333333  0.75000000  4.166667e-03
  0.20000000  0.00000000  0.00000000  4.166667e-03
  0.20000000  0.00000000  0.25000000  4.166667e-03
  0.20000000  0.00000000  0.50000000  4.166667e-03
  0.20000000  0.00000000  0.75000000  4.166667e-03
  0.20000000  0.16666667  0.00000000  4.166667e-03
  0.20000000  0.16666667  0.25000000  4.166667e-03
  0.20000000  0.16666667  0.50000000  4.166667e-03
  0.20000000  0.16666667  0.75000000  4.166667e-03
  0.20000000  0.33333333  0.00000000  4.166667e-03
  0.20000000  0.33333333  0.25000000  4.166667e-03
  0.20000000  0.33333333  0.50000000  4.166667e-03
  0.20000000  0.33333333  0.75000000  4.166667e-03
  0.20000000  0.50000000  0.00000000  4.166667e-03
  0.20000000  0.50000000  0.25000000  4.166667e-03
  0.20000000  0.50000000  0.50000000  4.166667e-03
  0.20000000  0.50000000  0.75000000  4.166667e-03
  0.20000000  0.66666667  0.00000000  4.166667e-03
  0.20000000  0.66666667  0.25000000  4.166667e-03
  0.20000000  0.66666667  0.50000000  4.166667e-03
  0.20000000  0.66666667  0.75000000  4.166667e-03
  0.20000000  0.83333333  0.00000000  4.166667e-03
  0.20000000  0.83333333  0.25000000  4.166667e-03
  0.20000000  0.83333333  0.50000000  4.166667e-03
  0.20000000  0.83333333  0.75000000  4.166667e-03
  0.30000000  0.00000000  0.00000000  4.166667e-03
  0.30000000  0.00000000  0.25000000  4.166667e-03
  0.30000000  0.00000000  0.50000000  4.166667e-03
  0.30000000  0.00000000  0.75000000  4.166667e-03
  0.30000000  0.16666667  0.00000000  4.166667e-03
  0.30000000  0.16666667  0.25000000  4.166667e-03
  0.30000000  0.16666667  0.50000000  4.166667e-03
  0.30000000  0.16666667  0.75000000  4.166667e-03
  0.30000000  0.33333333  0.00000000  4.166667e-03
  0.30000000  0.33333333  0.25000000  4.166667e-03
  0.30000000  0.33333333  0.50000000  4.166667e-03
  0.30000000  0.33333333  0.75000000  4.166667e-03
  0.30000000  0.50000000  0.00000000  4.166667e-03
  0.30000000  0.50000000  0.25000000  4.166667e-03
  0.30000000  0.50000000  0.50000000  4.166667e-03
  0.30000000  0.50000000  0.75000000  4.166667e-03
  0.30000000  0.66666667  0.00000000  4.166667e-03
  0.30000000  0.66666667  0.25000000  4.166667e-03
  0.30000000  0.66666667  0.50000000  4.166667e-03
  0.30000000  0.66666667  0.75000000  4.166667e-03
  0.30000000  0.83333333  0.00000000  4.166667e-03
  0.30000000  0.83333333  0.25000000  4.166667e-03
  0.30000000  0.83333333  0.50000000  4.166667e-03
  0.30000000  0.83333333  0.75000000  4.166667e-03
  0.40000000  0.00000000  0.00000000  4.166667e-03
  0.40000000  0.00000000  0.25000000  4.166667e-03
  0.40000000  0.00000000  0.50000000  4.166667e-03
  0.40000000  0.00000000  0.75000000  4.166667e-03
  0.40000000  0.16666667  0.00000000  4.166667e-03
  0.40000000  0.16666667  0.25000000  4.166667e-03
  0.40000000  0.16666667  0.50000000  4.166667e-03
  0.40000000  0.16666667  0.75000000  4.166667e-03
  0.40000000  0.33333333  0.00000000  4.166667e-03
  0.40000000  0.33333333  0.25000000  4.166667e-03
  0.40000000  0.33333333  0.50000000  4.166667e-03
  0.40000000  0.33333333  0.75000000  4.166667e-03
  0.40000000  0.50000000  0.00000000  4.166667e-03
  0.40000000  0.50000000  0.25000000  4.166667e-03
  0.40000000  0.50000000  0.50000000  4.166667e-03
  0.40000000  0.50000000  0.75000000  4.166667e-03
  0.40000000  0.66666667  0.00000000  4.166667e-03
  0.40000000  0.66666667  0.25000000  4.166667e-03
  0.40000000  0.66666667  0.50000000  4.166667e-03
  0.40000000  0.66666667  0.75000000  4.166667e-03
  0.40000000  0.83333333  0.00000000  4.166667e-03
  0.40000000  0.83333333  0.25000000  4.166667e-03
  0.40000000  0.83333333  0.50000000  4.166667e-03
  0.40000000  0.83333333  0.75000000  4.166667e-03
  0.50000000  0.00000000  0.00000000  4.166667e-03
  0.50000000  0.00000000  0.25000000  4.166667e-03
  0.50000000  0.00000000  0.50000000  4.166667e-03
  0.50000000  0.00000000  0.75000000  4.166667e-03
  0.50000000  0.16666667  0.00000000  4.166667e-03
  0.50000000  0.16666667  0.25000000  4.166667e-03
  0.50000000  0.16666667  0.50000000  4.166667e-03
  0.50000000  0.16666667  0.75000000  4.166667e-03
  0.50000000  0.33333333  0.00000000  4.166667e-03
  0.50000000  0.33333333  0.25000000  4.166667e-03
  0.50000000  0.33333333  0.50000000  4.166667e-03
  0.50000000  0.33333333  0.75000000  4.166667e-03
  0.50000000  0.50000000  0.00000000  4.166667e-03
  0.50000000  0.50000000  0.25000000  4.166667e-03
  0.50000000  0.50000000  0.50000000  4.166667e-03
  0.50000000  0.50000000  0.75000000  4.166667e-03
  0.50000000  0.66666667  0.00000000  4.166667e-03
  0.50000000  0.66666667  0.25000000  4.166667e-03
  0.50000000  0.66666667  0.50000000  4.166667e-03
  0.50000000  0.66666667  0.75000000  4.166667e-03
  0.50000000  0.83333333  0.00000000  4.166667e-03
  0.50000000  0.83333333  0.25000000  4.166667e-03
  0.50000000  0.83333333  0.50000000  4.166667e-03
  0.50000000  0.83333333  0.75000000  4.166667e-03
  0.60000000  0.00000000  0.00000000  4.166667e-03
  0.60000000  0.00000000  0.25000000  4.166667e-03
  0.60000000  0.00000000  0.50000000  4.166667e-03
  0.60000000  0.00000000  0.75000000  4.166667e-03
  0.60000000  0.16666667  0.00000000  4.166667e-03
  0.60000000  0.16666667  0.25000000  4.166667e-03
  0.60000000  0.16666667  0.50000000  4.166667e-03
  0.60000000  0.16666667  0.75000000  4.166667e-03
  0.60000000  0.33333333  0.00000000  4.166667e-03
  0.60000000  0.33333333  0.25000000  4.166667e-03
  0.60000000  0.33333333  0.50000000  4.166667e-03
  0.60000000  0.33333333  0.75000000  4.166667e-03
  0.60000000  0.50000000  0.00000000  4.166667e-03
  0.60000000  0.50000000  0.25000000  4.166667e-03
  0.60000000  0.50000000  0.50000000  4.166667e-03
  0.60000000  0.50000000  0.75000000  4.166667e-03
  0.60000000  0.66666667  0.00000000  4.166667e-03
  0.60000000  0.66666667  0.25000000  4.166667e-03
  0.60000000  0.66666667  0.50000000  4.166667e-03
  0.60000000  0.66666667  0.75000000  4.166667e-03
  0.60000000  0.83333333  0.00000000  4.166667e-03
  0.60000000  0.83333333  0.25000000  4.166667e-03
  0.60000000  0.83333333  0.50000000  4.166667e-03
  0.60000000  0.83333333  0.75000000  4.166667e-03
  0.70000000  0.00000000  0.00000000  4.166667e-03
  0.70000000  0.00000000  0.25000000  4.166667e-03
  0.70000000  0.00000000  0.50000000  4.166667e-03
  0.70000000  0.00000000  0.75000000  4.166667e-03
  0.70000000  0.16666667  0.00000000  4.166667e-03
  0.70000000  0.16666667  0.25000000  4.166667e-03
  0.70000000  0.16666667  0.50000000  4.166667e-03
  0.70000000  0.16666667  0.75000000  4.166667e-03
  0.70000000  0.33333333  0.00000000  4.166667e-03
  0.70000000  0.33333333  0.25000000  4.166667e-03
  0.70000000  0.33333333  0.50000000  4.166667e-03
  0.70000000  0.33333333  0.75000000  4.166667e-03
  0.70000000  0.50000000  0.00000000  4.166667e-03
  0.70000000  0.50000000  0.25000000  4.166667e-03
  0.70000000  0.50000000  0.50000000  4.166667e-03
  0.70000000  0.50000000  0.75000000  4.166667e-03
  0.70000000  0.66666667  0.00000000  4.166667e-03
  0.70000000  0.66666667  0.25000000  4.166667e-03
  0.70000000  0.66666667  0.50000000  4.166667e-03
  0.70000000  0.66666667  0.75000000  4.166667e-03
  0.70000000  0.83333333  0.00000000  4.166667e-03
  0.70000000  0.83333333  0.25000000  4.166667e-03
  0.70000000  0.83333333  0.50000000  4.166667e-03
  0.70000000  0.83333333  0.75000000  4.166667e-03
  0.80000000  0.00000000  0.00000000  4.166667e-03
  0.80000000  0.00000000  0.25000000  4.166667e-03
  0.80000000  0.00000000  0.50000000  4.166667e-03
  0.80000000  0.00000000  0.75000000  4.166667e-03
  0.80000000  0.16666667  0.00000000  4.166667e-03
  0.80000000  0.16666667  0.25000000  4.166667e-03
  0.80000000  0.16666667  0.50000000  4.166667e-03
  0.80000000  0.16666667  0.75000000  4.166667e-03
  0.80000000  0.33333333  0.00000000  4.166667e-03
  0.80000000  0.33333333  0.25000000  4.166667e-03
  0.80000000  0.33333333  0.50000000  4.166667e-03
  0.80000000  0.33333333  0.75000000  4.166667e-03
  0.80000000  0.50000000  0.00000000  4.166667e-03
  0.80000000  0.50000000  0.25000000  4.166667e-03
  0.80000000  0.50000000  0.50000000  4.166667e-03
  0.80000000  0.50000000  0.75000000  4.166667e-03
  0.80000000  0.66666667  0.00000000  4.166667e-03
  0.80000000  0.66666667  0.25000000  4.166667e-03
  0.80000000  0.66666667  0.50000000  4.166667e-03
  0.80000000  0.66666667  0.75000000  4.166667e-03
  0.80000000  0.83333333  0.00000000  4.166667e-03
  0.80000000  0.83333333  0.25000000  4.166667e-03
  0.80000000  0.83333333  0.50000000  4.166667e-03
  0.80000000  0.83333333  0.75000000  4.166667e-03
  0.90000000  0.00000000  0.00000000  4.166667e-03
  0.90000000  0.00000000  0.25000000  4.166667e-03
  0.90000000  0.00000000  0.50000000  4.166667e-03
  0.90000000  0.00000000  0.75000000  4.166667e-03
  0.90000000  0.16666667  0.00000000  4.166667e-03
  0.90000000  0.16666667  0.25000000  4.166667e-03
  0.90000000  0.16666667  0.50000000  4.166667e-03
  0.90000000  0.16666667  0.75000000  4.166667e-03
  0.90000000  0.33333333  0.00000000  4.166667e-03
  0.90000000  0.33333333  0.25000000  4.166667e-03
  0.90000000  0.33333333  0.50000000  4.166667e-03
  0.90000000  0.33333333  0.75000000  4.166667e-03
  0.90000000  0.50000000  0.00000000  4.166667e-03
  0.90000000  0.50000000  0.25000000  4.166667e-03
  0.90000000  0.50000000  0.50000000  4.166667e-03
  0.90000000  0.50000000  0.75000000  4.166667e-03
  0.90000000  0.66666667  0.00000000  4.166667e-03
  0.90000000  0.66666667  0.25000000  4.166667e-03
  0.90000000  0.66666667  0.50000000  4.166667e-03
  0.90000000  0.66666667  0.75000000  4.166667e-03
  0.90000000  0.83333333  0.00000000  4.166667e-03
  0.90000000  0.83333333  0.25000000  4.166667e-03
  0.90000000  0.83333333  0.50000000  4.166667e-03
  0.90000000  0.83333333  0.75000000  4.166667e-03


