num_wann = 24
exclude_bands = 1-8 33-64
num_iter = 500

auto_projections =.true.

begin atoms_frac
C 0.5949050456950545 0.8216599863015842 0.7500000576080064
C 0.17834001369841573 0.7732449825827954 0.7500000576080064
C 0.2267550174172046 0.40509495430494524 0.7500000576080064
C 0.40509503111562034 0.1783400136984157 0.2500000192026688
C 0.8216600631122591 0.22675501741720466 0.2500000192026688
C 0.7732450593934703 0.5949050456950548 0.2500000192026688
N 0.7034200540301652 0.670113051471832 0.7500000576080064
N 0.3298870253388432 0.03330700255833325 0.7500000576080064
N 0.9666930742523416 0.29658002278051004 0.7500000576080064
N 0.2965800227805099 0.329886948528168 0.2500000192026688
N 0.6701130514718318 0.9666929974416668 0.2500000192026688
N 0.033307002558333215 0.70341997721949 0.2500000192026688
N 0.33333335893689164 0.6666666410631084 0.7500000576080064
N 0.6666667178737835 0.3333333589368918 0.2500000192026688
end atoms_frac

geninterp = true
geninterp_alsofirstder = true

begin unit_cell_cart
6.450526 0.000000 0.000000
-3.225263 5.586319 0.000000
0.000000 0.000000 2.423140
end unit_cell_cart

mp_grid : 4 4 12

begin kpoints
  0.00000000  0.00000000  0.00000000
  0.00000000  0.00000000  0.08333333
  0.00000000  0.00000000  0.16666667
  0.00000000  0.00000000  0.25000000
  0.00000000  0.00000000  0.33333333
  0.00000000  0.00000000  0.41666667
  0.00000000  0.00000000  0.50000000
  0.00000000  0.00000000  0.58333333
  0.00000000  0.00000000  0.66666667
  0.00000000  0.00000000  0.75000000
  0.00000000  0.00000000  0.83333333
  0.00000000  0.00000000  0.91666667
  0.00000000  0.25000000  0.00000000
  0.00000000  0.25000000  0.08333333
  0.00000000  0.25000000  0.16666667
  0.00000000  0.25000000  0.25000000
  0.00000000  0.25000000  0.33333333
  0.00000000  0.25000000  0.41666667
  0.00000000  0.25000000  0.50000000
  0.00000000  0.25000000  0.58333333
  0.00000000  0.25000000  0.66666667
  0.00000000  0.25000000  0.75000000
  0.00000000  0.25000000  0.83333333
  0.00000000  0.25000000  0.91666667
  0.00000000  0.50000000  0.00000000
  0.00000000  0.50000000  0.08333333
  0.00000000  0.50000000  0.16666667
  0.00000000  0.50000000  0.25000000
  0.00000000  0.50000000  0.33333333
  0.00000000  0.50000000  0.41666667
  0.00000000  0.50000000  0.50000000
  0.00000000  0.50000000  0.58333333
  0.00000000  0.50000000  0.66666667
  0.00000000  0.50000000  0.75000000
  0.00000000  0.50000000  0.83333333
  0.00000000  0.50000000  0.91666667
  0.00000000  0.75000000  0.00000000
  0.00000000  0.75000000  0.08333333
  0.00000000  0.75000000  0.16666667
  0.00000000  0.75000000  0.25000000
  0.00000000  0.75000000  0.33333333
  0.00000000  0.75000000  0.41666667
  0.00000000  0.75000000  0.50000000
  0.00000000  0.75000000  0.58333333
  0.00000000  0.75000000  0.66666667
  0.00000000  0.75000000  0.75000000
  0.00000000  0.75000000  0.83333333
  0.00000000  0.75000000  0.91666667
  0.25000000  0.00000000  0.00000000
  0.25000000  0.00000000  0.08333333
  0.25000000  0.00000000  0.16666667
  0.25000000  0.00000000  0.25000000
  0.25000000  0.00000000  0.33333333
  0.25000000  0.00000000  0.41666667
  0.25000000  0.00000000  0.50000000
  0.25000000  0.00000000  0.58333333
  0.25000000  0.00000000  0.66666667
  0.25000000  0.00000000  0.75000000
  0.25000000  0.00000000  0.83333333
  0.25000000  0.00000000  0.91666667
  0.25000000  0.25000000  0.00000000
  0.25000000  0.25000000  0.08333333
  0.25000000  0.25000000  0.16666667
  0.25000000  0.25000000  0.25000000
  0.25000000  0.25000000  0.33333333
  0.25000000  0.25000000  0.41666667
  0.25000000  0.25000000  0.50000000
  0.25000000  0.25000000  0.58333333
  0.25000000  0.25000000  0.66666667
  0.25000000  0.25000000  0.75000000
  0.25000000  0.25000000  0.83333333
  0.25000000  0.25000000  0.91666667
  0.25000000  0.50000000  0.00000000
  0.25000000  0.50000000  0.08333333
  0.25000000  0.50000000  0.16666667
  0.25000000  0.50000000  0.25000000
  0.25000000  0.50000000  0.33333333
  0.25000000  0.50000000  0.41666667
  0.25000000  0.50000000  0.50000000
  0.25000000  0.50000000  0.58333333
  0.25000000  0.50000000  0.66666667
  0.25000000  0.50000000  0.75000000
  0.25000000  0.50000000  0.83333333
  0.25000000  0.50000000  0.91666667
  0.25000000  0.75000000  0.00000000
  0.25000000  0.75000000  0.08333333
  0.25000000  0.75000000  0.16666667
  0.25000000  0.75000000  0.25000000
  0.25000000  0.75000000  0.33333333
  0.25000000  0.75000000  0.41666667
  0.25000000  0.75000000  0.50000000
  0.25000000  0.75000000  0.58333333
  0.25000000  0.75000000  0.66666667
  0.25000000  0.75000000  0.75000000
  0.25000000  0.75000000  0.83333333
  0.25000000  0.75000000  0.91666667
  0.50000000  0.00000000  0.00000000
  0.50000000  0.00000000  0.08333333
  0.50000000  0.00000000  0.16666667
  0.50000000  0.00000000  0.25000000
  0.50000000  0.00000000  0.33333333
  0.50000000  0.00000000  0.41666667
  0.50000000  0.00000000  0.50000000
  0.50000000  0.00000000  0.58333333
  0.50000000  0.00000000  0.66666667
  0.50000000  0.00000000  0.75000000
  0.50000000  0.00000000  0.83333333
  0.50000000  0.00000000  0.91666667
  0.50000000  0.25000000  0.00000000
  0.50000000  0.25000000  0.08333333
  0.50000000  0.25000000  0.16666667
  0.50000000  0.25000000  0.25000000
  0.50000000  0.25000000  0.33333333
  0.50000000  0.25000000  0.41666667
  0.50000000  0.25000000  0.50000000
  0.50000000  0.25000000  0.58333333
  0.50000000  0.25000000  0.66666667
  0.50000000  0.25000000  0.75000000
  0.50000000  0.25000000  0.83333333
  0.50000000  0.25000000  0.91666667
  0.50000000  0.50000000  0.00000000
  0.50000000  0.50000000  0.08333333
  0.50000000  0.50000000  0.16666667
  0.50000000  0.50000000  0.25000000
  0.50000000  0.50000000  0.33333333
  0.50000000  0.50000000  0.41666667
  0.50000000  0.50000000  0.50000000
  0.50000000  0.50000000  0.58333333
  0.50000000  0.50000000  0.66666667
  0.50000000  0.50000000  0.75000000
  0.50000000  0.50000000  0.83333333
  0.50000000  0.50000000  0.91666667
  0.50000000  0.75000000  0.00000000
  0.50000000  0.75000000  0.08333333
  0.50000000  0.75000000  0.16666667
  0.50000000  0.75000000  0.25000000
  0.50000000  0.75000000  0.33333333
  0.50000000  0.75000000  0.41666667
  0.50000000  0.75000000  0.50000000
  0.50000000  0.75000000  0.58333333
  0.50000000  0.75000000  0.66666667
  0.50000000  0.75000000  0.75000000
  0.50000000  0.75000000  0.83333333
  0.50000000  0.75000000  0.91666667
  0.75000000  0.00000000  0.00000000
  0.75000000  0.00000000  0.08333333
  0.75000000  0.00000000  0.16666667
  0.75000000  0.00000000  0.25000000
  0.75000000  0.00000000  0.33333333
  0.75000000  0.00000000  0.41666667
  0.75000000  0.00000000  0.50000000
  0.75000000  0.00000000  0.58333333
  0.75000000  0.00000000  0.66666667
  0.75000000  0.00000000  0.75000000
  0.75000000  0.00000000  0.83333333
  0.75000000  0.00000000  0.91666667
  0.75000000  0.25000000  0.00000000
  0.75000000  0.25000000  0.08333333
  0.75000000  0.25000000  0.16666667
  0.75000000  0.25000000  0.25000000
  0.75000000  0.25000000  0.33333333
  0.75000000  0.25000000  0.41666667
  0.75000000  0.25000000  0.50000000
  0.75000000  0.25000000  0.58333333
  0.75000000  0.25000000  0.66666667
  0.75000000  0.25000000  0.75000000
  0.75000000  0.25000000  0.83333333
  0.75000000  0.25000000  0.91666667
  0.75000000  0.50000000  0.00000000
  0.75000000  0.50000000  0.08333333
  0.75000000  0.50000000  0.16666667
  0.75000000  0.50000000  0.25000000
  0.75000000  0.50000000  0.33333333
  0.75000000  0.50000000  0.41666667
  0.75000000  0.50000000  0.50000000
  0.75000000  0.50000000  0.58333333
  0.75000000  0.50000000  0.66666667
  0.75000000  0.50000000  0.75000000
  0.75000000  0.50000000  0.83333333
  0.75000000  0.50000000  0.91666667
  0.75000000  0.75000000  0.00000000
  0.75000000  0.75000000  0.08333333
  0.75000000  0.75000000  0.16666667
  0.75000000  0.75000000  0.25000000
  0.75000000  0.75000000  0.33333333
  0.75000000  0.75000000  0.41666667
  0.75000000  0.75000000  0.50000000
  0.75000000  0.75000000  0.58333333
  0.75000000  0.75000000  0.66666667
  0.75000000  0.75000000  0.75000000
  0.75000000  0.75000000  0.83333333
  0.75000000  0.75000000  0.91666667
end kpoints

