Pb4 Br8
1.0
   4.7431112856784203    0.0000000000000000    0.0000000000000000
   0.0000000000000000    8.1301912655145205    0.0000000000000000
   0.0000000000000000    0.0000000000000000    9.8794377011537193
Pb Br
4 8
direct
   0.2500000192026688    0.2334840679340675    0.4225084324531553 Pb
   0.7500000576080065    0.7665160088766076    0.5774916443575200 Pb
   0.2500000192026690    0.7334841063394050    0.0774916059521823 Pb
   0.7500000576080065    0.2665159704712701    0.9225084708584931 Pb
   0.2500000192026688    0.0090565306956382    0.6561843804019615 Br
   0.7500000576080066    0.9909435461150369    0.3438156964087138 Br
   0.2500000192026689    0.5090565691009759    0.8438157348140514 Br
   0.7500000576080065    0.4909435077096994    0.1561843419966238 Br
   0.7500000576080066    0.8587217059589889    0.9137710501873659 Br
   0.2500000192026688    0.1412783708516862    0.0862290266233093 Br
   0.7500000576080065    0.3587216675536513    0.5862290650286468 Br
   0.2500000192026690    0.6412784092570238    0.4137710117820284 Br
