Cs1 F1
1.0
  -3.0061392952511068    0.0000000000000000    3.0061392952511068
   0.0000000000000000    3.0061392952511068    3.0061392952511068
  -3.0061392952511068    3.0061392952511068    0.0000000000000000
Cs F
1 1
direct
   0.0000000000000000    0.0000000000000000    0.0000000000000000 Cs
   0.4999999615946624    0.5000000384053376    0.4999999615946624 F
