&inputpp
    prefix = 'mp-8062'
    outdir='out/',
    plot_num=10,
    emin = 10.86732496813026,
    emax = 11.86732496813026,
    delta_e = 0.1,
/
&plot
    iflag=3,
    output_format=6,
    fileout='ldos.cube',
/
