Ca1 O1
1.0
  -2.4035555114141687    0.0000000000000000    2.4035555114141687
   0.0000000000000000    2.4035555114141687    2.4035555114141687
  -2.4035555114141687    2.4035555114141687    0.0000000000000000
Ca O
1 1
direct
   0.0000000000000000    0.0000000000000000    0.0000000000000000 Ca
   0.4999999615946624    0.5000000384053376    0.4999999615946624 O
