&inputpp
    prefix = 'mp-1342'
    outdir='out/',
    plot_num=10,
    emin = 10.332542265217565,
    emax = 11.332542265217565,
    delta_e = 0.1,
/
&plot
    iflag=3,
    output_format=6,
    fileout='ldos.cube',
/
