&CONTROL
  calculation = 'scf',
  disk_io = 'low',
  outdir = 'out/',
  prefix = 'mp-1265',
  pseudo_dir = '/usr/scratch4/magr4826/Promotion/Python/Code/devEb/pseudo/SG15',
/
&SYSTEM
  celldm(1) = 7.9255160596525185,
  degauss = 0.0004593661607577953,
  ecutwfc = 70,
  force_symmorphic = .FALSE.,
  ibrav = 2,
  nbnd = 16,
  nosym = .FALSE.,
  occupations = 'smearing',
  smearing = 'gaussian',
  nat = 2,
  ntyp = 2,
/
&ELECTRONS
  conv_thr = 1d-10,
  diago_full_acc = .TRUE.,
  diago_thr_init = 5d-06,
  diagonalization = 'david',
/
&IONS
/
&CELL
/
ATOMIC_SPECIES
  Mg  24.3050 Mg.upf
  O  15.9994 O.upf
ATOMIC_POSITIONS crystal
  Mg 0.00000000 0.00000000 0.00000000
  O 0.49999996 0.50000004 0.49999996
K_POINTS automatic
  12 12 12 0 0 0

