&inputpp
    prefix = 'mp-23167'
    outdir='out/',
    plot_num=10,
    emin = 7.772681442559155,
    emax = 8.772681442559154,
    delta_e = 0.1,
/
&plot
    iflag=3,
    output_format=6,
    fileout='ldos.cube',
/
