&inputpp
    prefix = 'mp-1253'
    outdir='out/',
    plot_num=10,
    emin = 7.3375371569221635,
    emax = 8.537537156922163,
    delta_e = 0.1,
/
&plot
    iflag=3,
    output_format=6,
    fileout='ldos.cube',
/
