&CONTROL
  calculation = 'nscf',
  disk_io = 'nowf',
  outdir = 'out/',
  prefix = 'mp-28077',
  pseudo_dir = '/usr/scratch4/magr4985/MG/devEb/pseudo/SG15',
/
&SYSTEM
  celldm(1) = 8.96318135173646,
  celldm(2) = 1.7141051043991342,
  celldm(3) = 2.082902362207729,
  degauss = 0.0004593661607577953,
  ecutwfc = 130,
  ibrav = 8,
  nbnd = 112,
  occupations = 'smearing',
  smearing = 'gaussian',
  nat = 12,
  ntyp = 2,
/
&ELECTRONS
  conv_thr = 1d-10,
  diago_full_acc = .TRUE.,
  diago_thr_init = 5d-06,
  diagonalization = 'paro',
/
&IONS
/
&CELL
/
ATOMIC_SPECIES
  Br  79.9040 Br.upf
  Pb  207.2000 Pb.upf
ATOMIC_POSITIONS crystal
  Pb 0.25000002 0.23348407 0.42250843
  Pb 0.75000006 0.76651601 0.57749164
  Pb 0.25000002 0.73348411 0.07749161
  Pb 0.75000006 0.26651597 0.92250847
  Br 0.25000002 0.00905653 0.65618438
  Br 0.75000006 0.99094355 0.34381570
  Br 0.25000002 0.50905657 0.84381573
  Br 0.75000006 0.49094351 0.15618434
  Br 0.75000006 0.85872171 0.91377105
  Br 0.25000002 0.14127837 0.08622903
  Br 0.75000006 0.35872167 0.58622907
  Br 0.25000002 0.64127841 0.41377101
K_POINTS tpiba
7
0.0 -0.2916973986698706 -0.2400496581462463 1
0.01 -0.2916973986698706 -0.2400496581462463 1
-0.01 -0.2916973986698706 -0.2400496581462463 1 
0.0 -0.2816973986698706 -0.2400496581462463 1
0.0 -0.3016973986698706 -0.2400496581462463 1 
0.0 -0.2916973986698706 -0.23004965814624628 1
0.0 -0.2916973986698706 -0.2500496581462463 1 


