&inputpp
    prefix = 'mp-1265'
    outdir='out/',
    plot_num=10,
    emin = 13.817806416867517,
    emax = 15.017806416867517,
    delta_e = 0.1,
/
&plot
    iflag=3,
    output_format=6,
    fileout='ldos.cube',
/
