num_wann = 6
exclude_bands = 1-12 19-36
num_iter = 500

auto_projections =.true.

begin atoms_frac
Ga 0.33333335893689175 0.6666666410631084 0.4990837483349567
Ga 0.6666667178737834 0.3333333589368917 0.9990837867402944
N 0.33333335893689175 0.6666666410631084 0.8759163572797216
N 0.6666667178737834 0.3333333589368917 0.3759163188743842
end atoms_frac

geninterp = true
geninterp_alsofirstder = true

begin unit_cell_cart
3.188930 0.000000 0.000000
-1.594465 2.761695 0.000000
0.000000 0.000000 5.192357
end unit_cell_cart

mp_grid : 10 10 6

begin kpoints
  0.00000000  0.00000000  0.00000000
  0.00000000  0.00000000  0.16666667
  0.00000000  0.00000000  0.33333333
  0.00000000  0.00000000  0.50000000
  0.00000000  0.00000000  0.66666667
  0.00000000  0.00000000  0.83333333
  0.00000000  0.10000000  0.00000000
  0.00000000  0.10000000  0.16666667
  0.00000000  0.10000000  0.33333333
  0.00000000  0.10000000  0.50000000
  0.00000000  0.10000000  0.66666667
  0.00000000  0.10000000  0.83333333
  0.00000000  0.20000000  0.00000000
  0.00000000  0.20000000  0.16666667
  0.00000000  0.20000000  0.33333333
  0.00000000  0.20000000  0.50000000
  0.00000000  0.20000000  0.66666667
  0.00000000  0.20000000  0.83333333
  0.00000000  0.30000000  0.00000000
  0.00000000  0.30000000  0.16666667
  0.00000000  0.30000000  0.33333333
  0.00000000  0.30000000  0.50000000
  0.00000000  0.30000000  0.66666667
  0.00000000  0.30000000  0.83333333
  0.00000000  0.40000000  0.00000000
  0.00000000  0.40000000  0.16666667
  0.00000000  0.40000000  0.33333333
  0.00000000  0.40000000  0.50000000
  0.00000000  0.40000000  0.66666667
  0.00000000  0.40000000  0.83333333
  0.00000000  0.50000000  0.00000000
  0.00000000  0.50000000  0.16666667
  0.00000000  0.50000000  0.33333333
  0.00000000  0.50000000  0.50000000
  0.00000000  0.50000000  0.66666667
  0.00000000  0.50000000  0.83333333
  0.00000000  0.60000000  0.00000000
  0.00000000  0.60000000  0.16666667
  0.00000000  0.60000000  0.33333333
  0.00000000  0.60000000  0.50000000
  0.00000000  0.60000000  0.66666667
  0.00000000  0.60000000  0.83333333
  0.00000000  0.70000000  0.00000000
  0.00000000  0.70000000  0.16666667
  0.00000000  0.70000000  0.33333333
  0.00000000  0.70000000  0.50000000
  0.00000000  0.70000000  0.66666667
  0.00000000  0.70000000  0.83333333
  0.00000000  0.80000000  0.00000000
  0.00000000  0.80000000  0.16666667
  0.00000000  0.80000000  0.33333333
  0.00000000  0.80000000  0.50000000
  0.00000000  0.80000000  0.66666667
  0.00000000  0.80000000  0.83333333
  0.00000000  0.90000000  0.00000000
  0.00000000  0.90000000  0.16666667
  0.00000000  0.90000000  0.33333333
  0.00000000  0.90000000  0.50000000
  0.00000000  0.90000000  0.66666667
  0.00000000  0.90000000  0.83333333
  0.10000000  0.00000000  0.00000000
  0.10000000  0.00000000  0.16666667
  0.10000000  0.00000000  0.33333333
  0.10000000  0.00000000  0.50000000
  0.10000000  0.00000000  0.66666667
  0.10000000  0.00000000  0.83333333
  0.10000000  0.10000000  0.00000000
  0.10000000  0.10000000  0.16666667
  0.10000000  0.10000000  0.33333333
  0.10000000  0.10000000  0.50000000
  0.10000000  0.10000000  0.66666667
  0.10000000  0.10000000  0.83333333
  0.10000000  0.20000000  0.00000000
  0.10000000  0.20000000  0.16666667
  0.10000000  0.20000000  0.33333333
  0.10000000  0.20000000  0.50000000
  0.10000000  0.20000000  0.66666667
  0.10000000  0.20000000  0.83333333
  0.10000000  0.30000000  0.00000000
  0.10000000  0.30000000  0.16666667
  0.10000000  0.30000000  0.33333333
  0.10000000  0.30000000  0.50000000
  0.10000000  0.30000000  0.66666667
  0.10000000  0.30000000  0.83333333
  0.10000000  0.40000000  0.00000000
  0.10000000  0.40000000  0.16666667
  0.10000000  0.40000000  0.33333333
  0.10000000  0.40000000  0.50000000
  0.10000000  0.40000000  0.66666667
  0.10000000  0.40000000  0.83333333
  0.10000000  0.50000000  0.00000000
  0.10000000  0.50000000  0.16666667
  0.10000000  0.50000000  0.33333333
  0.10000000  0.50000000  0.50000000
  0.10000000  0.50000000  0.66666667
  0.10000000  0.50000000  0.83333333
  0.10000000  0.60000000  0.00000000
  0.10000000  0.60000000  0.16666667
  0.10000000  0.60000000  0.33333333
  0.10000000  0.60000000  0.50000000
  0.10000000  0.60000000  0.66666667
  0.10000000  0.60000000  0.83333333
  0.10000000  0.70000000  0.00000000
  0.10000000  0.70000000  0.16666667
  0.10000000  0.70000000  0.33333333
  0.10000000  0.70000000  0.50000000
  0.10000000  0.70000000  0.66666667
  0.10000000  0.70000000  0.83333333
  0.10000000  0.80000000  0.00000000
  0.10000000  0.80000000  0.16666667
  0.10000000  0.80000000  0.33333333
  0.10000000  0.80000000  0.50000000
  0.10000000  0.80000000  0.66666667
  0.10000000  0.80000000  0.83333333
  0.10000000  0.90000000  0.00000000
  0.10000000  0.90000000  0.16666667
  0.10000000  0.90000000  0.33333333
  0.10000000  0.90000000  0.50000000
  0.10000000  0.90000000  0.66666667
  0.10000000  0.90000000  0.83333333
  0.20000000  0.00000000  0.00000000
  0.20000000  0.00000000  0.16666667
  0.20000000  0.00000000  0.33333333
  0.20000000  0.00000000  0.50000000
  0.20000000  0.00000000  0.66666667
  0.20000000  0.00000000  0.83333333
  0.20000000  0.10000000  0.00000000
  0.20000000  0.10000000  0.16666667
  0.20000000  0.10000000  0.33333333
  0.20000000  0.10000000  0.50000000
  0.20000000  0.10000000  0.66666667
  0.20000000  0.10000000  0.83333333
  0.20000000  0.20000000  0.00000000
  0.20000000  0.20000000  0.16666667
  0.20000000  0.20000000  0.33333333
  0.20000000  0.20000000  0.50000000
  0.20000000  0.20000000  0.66666667
  0.20000000  0.20000000  0.83333333
  0.20000000  0.30000000  0.00000000
  0.20000000  0.30000000  0.16666667
  0.20000000  0.30000000  0.33333333
  0.20000000  0.30000000  0.50000000
  0.20000000  0.30000000  0.66666667
  0.20000000  0.30000000  0.83333333
  0.20000000  0.40000000  0.00000000
  0.20000000  0.40000000  0.16666667
  0.20000000  0.40000000  0.33333333
  0.20000000  0.40000000  0.50000000
  0.20000000  0.40000000  0.66666667
  0.20000000  0.40000000  0.83333333
  0.20000000  0.50000000  0.00000000
  0.20000000  0.50000000  0.16666667
  0.20000000  0.50000000  0.33333333
  0.20000000  0.50000000  0.50000000
  0.20000000  0.50000000  0.66666667
  0.20000000  0.50000000  0.83333333
  0.20000000  0.60000000  0.00000000
  0.20000000  0.60000000  0.16666667
  0.20000000  0.60000000  0.33333333
  0.20000000  0.60000000  0.50000000
  0.20000000  0.60000000  0.66666667
  0.20000000  0.60000000  0.83333333
  0.20000000  0.70000000  0.00000000
  0.20000000  0.70000000  0.16666667
  0.20000000  0.70000000  0.33333333
  0.20000000  0.70000000  0.50000000
  0.20000000  0.70000000  0.66666667
  0.20000000  0.70000000  0.83333333
  0.20000000  0.80000000  0.00000000
  0.20000000  0.80000000  0.16666667
  0.20000000  0.80000000  0.33333333
  0.20000000  0.80000000  0.50000000
  0.20000000  0.80000000  0.66666667
  0.20000000  0.80000000  0.83333333
  0.20000000  0.90000000  0.00000000
  0.20000000  0.90000000  0.16666667
  0.20000000  0.90000000  0.33333333
  0.20000000  0.90000000  0.50000000
  0.20000000  0.90000000  0.66666667
  0.20000000  0.90000000  0.83333333
  0.30000000  0.00000000  0.00000000
  0.30000000  0.00000000  0.16666667
  0.30000000  0.00000000  0.33333333
  0.30000000  0.00000000  0.50000000
  0.30000000  0.00000000  0.66666667
  0.30000000  0.00000000  0.83333333
  0.30000000  0.10000000  0.00000000
  0.30000000  0.10000000  0.16666667
  0.30000000  0.10000000  0.33333333
  0.30000000  0.10000000  0.50000000
  0.30000000  0.10000000  0.66666667
  0.30000000  0.10000000  0.83333333
  0.30000000  0.20000000  0.00000000
  0.30000000  0.20000000  0.16666667
  0.30000000  0.20000000  0.33333333
  0.30000000  0.20000000  0.50000000
  0.30000000  0.20000000  0.66666667
  0.30000000  0.20000000  0.83333333
  0.30000000  0.30000000  0.00000000
  0.30000000  0.30000000  0.16666667
  0.30000000  0.30000000  0.33333333
  0.30000000  0.30000000  0.50000000
  0.30000000  0.30000000  0.66666667
  0.30000000  0.30000000  0.83333333
  0.30000000  0.40000000  0.00000000
  0.30000000  0.40000000  0.16666667
  0.30000000  0.40000000  0.33333333
  0.30000000  0.40000000  0.50000000
  0.30000000  0.40000000  0.66666667
  0.30000000  0.40000000  0.83333333
  0.30000000  0.50000000  0.00000000
  0.30000000  0.50000000  0.16666667
  0.30000000  0.50000000  0.33333333
  0.30000000  0.50000000  0.50000000
  0.30000000  0.50000000  0.66666667
  0.30000000  0.50000000  0.83333333
  0.30000000  0.60000000  0.00000000
  0.30000000  0.60000000  0.16666667
  0.30000000  0.60000000  0.33333333
  0.30000000  0.60000000  0.50000000
  0.30000000  0.60000000  0.66666667
  0.30000000  0.60000000  0.83333333
  0.30000000  0.70000000  0.00000000
  0.30000000  0.70000000  0.16666667
  0.30000000  0.70000000  0.33333333
  0.30000000  0.70000000  0.50000000
  0.30000000  0.70000000  0.66666667
  0.30000000  0.70000000  0.83333333
  0.30000000  0.80000000  0.00000000
  0.30000000  0.80000000  0.16666667
  0.30000000  0.80000000  0.33333333
  0.30000000  0.80000000  0.50000000
  0.30000000  0.80000000  0.66666667
  0.30000000  0.80000000  0.83333333
  0.30000000  0.90000000  0.00000000
  0.30000000  0.90000000  0.16666667
  0.30000000  0.90000000  0.33333333
  0.30000000  0.90000000  0.50000000
  0.30000000  0.90000000  0.66666667
  0.30000000  0.90000000  0.83333333
  0.40000000  0.00000000  0.00000000
  0.40000000  0.00000000  0.16666667
  0.40000000  0.00000000  0.33333333
  0.40000000  0.00000000  0.50000000
  0.40000000  0.00000000  0.66666667
  0.40000000  0.00000000  0.83333333
  0.40000000  0.10000000  0.00000000
  0.40000000  0.10000000  0.16666667
  0.40000000  0.10000000  0.33333333
  0.40000000  0.10000000  0.50000000
  0.40000000  0.10000000  0.66666667
  0.40000000  0.10000000  0.83333333
  0.40000000  0.20000000  0.00000000
  0.40000000  0.20000000  0.16666667
  0.40000000  0.20000000  0.33333333
  0.40000000  0.20000000  0.50000000
  0.40000000  0.20000000  0.66666667
  0.40000000  0.20000000  0.83333333
  0.40000000  0.30000000  0.00000000
  0.40000000  0.30000000  0.16666667
  0.40000000  0.30000000  0.33333333
  0.40000000  0.30000000  0.50000000
  0.40000000  0.30000000  0.66666667
  0.40000000  0.30000000  0.83333333
  0.40000000  0.40000000  0.00000000
  0.40000000  0.40000000  0.16666667
  0.40000000  0.40000000  0.33333333
  0.40000000  0.40000000  0.50000000
  0.40000000  0.40000000  0.66666667
  0.40000000  0.40000000  0.83333333
  0.40000000  0.50000000  0.00000000
  0.40000000  0.50000000  0.16666667
  0.40000000  0.50000000  0.33333333
  0.40000000  0.50000000  0.50000000
  0.40000000  0.50000000  0.66666667
  0.40000000  0.50000000  0.83333333
  0.40000000  0.60000000  0.00000000
  0.40000000  0.60000000  0.16666667
  0.40000000  0.60000000  0.33333333
  0.40000000  0.60000000  0.50000000
  0.40000000  0.60000000  0.66666667
  0.40000000  0.60000000  0.83333333
  0.40000000  0.70000000  0.00000000
  0.40000000  0.70000000  0.16666667
  0.40000000  0.70000000  0.33333333
  0.40000000  0.70000000  0.50000000
  0.40000000  0.70000000  0.66666667
  0.40000000  0.70000000  0.83333333
  0.40000000  0.80000000  0.00000000
  0.40000000  0.80000000  0.16666667
  0.40000000  0.80000000  0.33333333
  0.40000000  0.80000000  0.50000000
  0.40000000  0.80000000  0.66666667
  0.40000000  0.80000000  0.83333333
  0.40000000  0.90000000  0.00000000
  0.40000000  0.90000000  0.16666667
  0.40000000  0.90000000  0.33333333
  0.40000000  0.90000000  0.50000000
  0.40000000  0.90000000  0.66666667
  0.40000000  0.90000000  0.83333333
  0.50000000  0.00000000  0.00000000
  0.50000000  0.00000000  0.16666667
  0.50000000  0.00000000  0.33333333
  0.50000000  0.00000000  0.50000000
  0.50000000  0.00000000  0.66666667
  0.50000000  0.00000000  0.83333333
  0.50000000  0.10000000  0.00000000
  0.50000000  0.10000000  0.16666667
  0.50000000  0.10000000  0.33333333
  0.50000000  0.10000000  0.50000000
  0.50000000  0.10000000  0.66666667
  0.50000000  0.10000000  0.83333333
  0.50000000  0.20000000  0.00000000
  0.50000000  0.20000000  0.16666667
  0.50000000  0.20000000  0.33333333
  0.50000000  0.20000000  0.50000000
  0.50000000  0.20000000  0.66666667
  0.50000000  0.20000000  0.83333333
  0.50000000  0.30000000  0.00000000
  0.50000000  0.30000000  0.16666667
  0.50000000  0.30000000  0.33333333
  0.50000000  0.30000000  0.50000000
  0.50000000  0.30000000  0.66666667
  0.50000000  0.30000000  0.83333333
  0.50000000  0.40000000  0.00000000
  0.50000000  0.40000000  0.16666667
  0.50000000  0.40000000  0.33333333
  0.50000000  0.40000000  0.50000000
  0.50000000  0.40000000  0.66666667
  0.50000000  0.40000000  0.83333333
  0.50000000  0.50000000  0.00000000
  0.50000000  0.50000000  0.16666667
  0.50000000  0.50000000  0.33333333
  0.50000000  0.50000000  0.50000000
  0.50000000  0.50000000  0.66666667
  0.50000000  0.50000000  0.83333333
  0.50000000  0.60000000  0.00000000
  0.50000000  0.60000000  0.16666667
  0.50000000  0.60000000  0.33333333
  0.50000000  0.60000000  0.50000000
  0.50000000  0.60000000  0.66666667
  0.50000000  0.60000000  0.83333333
  0.50000000  0.70000000  0.00000000
  0.50000000  0.70000000  0.16666667
  0.50000000  0.70000000  0.33333333
  0.50000000  0.70000000  0.50000000
  0.50000000  0.70000000  0.66666667
  0.50000000  0.70000000  0.83333333
  0.50000000  0.80000000  0.00000000
  0.50000000  0.80000000  0.16666667
  0.50000000  0.80000000  0.33333333
  0.50000000  0.80000000  0.50000000
  0.50000000  0.80000000  0.66666667
  0.50000000  0.80000000  0.83333333
  0.50000000  0.90000000  0.00000000
  0.50000000  0.90000000  0.16666667
  0.50000000  0.90000000  0.33333333
  0.50000000  0.90000000  0.50000000
  0.50000000  0.90000000  0.66666667
  0.50000000  0.90000000  0.83333333
  0.60000000  0.00000000  0.00000000
  0.60000000  0.00000000  0.16666667
  0.60000000  0.00000000  0.33333333
  0.60000000  0.00000000  0.50000000
  0.60000000  0.00000000  0.66666667
  0.60000000  0.00000000  0.83333333
  0.60000000  0.10000000  0.00000000
  0.60000000  0.10000000  0.16666667
  0.60000000  0.10000000  0.33333333
  0.60000000  0.10000000  0.50000000
  0.60000000  0.10000000  0.66666667
  0.60000000  0.10000000  0.83333333
  0.60000000  0.20000000  0.00000000
  0.60000000  0.20000000  0.16666667
  0.60000000  0.20000000  0.33333333
  0.60000000  0.20000000  0.50000000
  0.60000000  0.20000000  0.66666667
  0.60000000  0.20000000  0.83333333
  0.60000000  0.30000000  0.00000000
  0.60000000  0.30000000  0.16666667
  0.60000000  0.30000000  0.33333333
  0.60000000  0.30000000  0.50000000
  0.60000000  0.30000000  0.66666667
  0.60000000  0.30000000  0.83333333
  0.60000000  0.40000000  0.00000000
  0.60000000  0.40000000  0.16666667
  0.60000000  0.40000000  0.33333333
  0.60000000  0.40000000  0.50000000
  0.60000000  0.40000000  0.66666667
  0.60000000  0.40000000  0.83333333
  0.60000000  0.50000000  0.00000000
  0.60000000  0.50000000  0.16666667
  0.60000000  0.50000000  0.33333333
  0.60000000  0.50000000  0.50000000
  0.60000000  0.50000000  0.66666667
  0.60000000  0.50000000  0.83333333
  0.60000000  0.60000000  0.00000000
  0.60000000  0.60000000  0.16666667
  0.60000000  0.60000000  0.33333333
  0.60000000  0.60000000  0.50000000
  0.60000000  0.60000000  0.66666667
  0.60000000  0.60000000  0.83333333
  0.60000000  0.70000000  0.00000000
  0.60000000  0.70000000  0.16666667
  0.60000000  0.70000000  0.33333333
  0.60000000  0.70000000  0.50000000
  0.60000000  0.70000000  0.66666667
  0.60000000  0.70000000  0.83333333
  0.60000000  0.80000000  0.00000000
  0.60000000  0.80000000  0.16666667
  0.60000000  0.80000000  0.33333333
  0.60000000  0.80000000  0.50000000
  0.60000000  0.80000000  0.66666667
  0.60000000  0.80000000  0.83333333
  0.60000000  0.90000000  0.00000000
  0.60000000  0.90000000  0.16666667
  0.60000000  0.90000000  0.33333333
  0.60000000  0.90000000  0.50000000
  0.60000000  0.90000000  0.66666667
  0.60000000  0.90000000  0.83333333
  0.70000000  0.00000000  0.00000000
  0.70000000  0.00000000  0.16666667
  0.70000000  0.00000000  0.33333333
  0.70000000  0.00000000  0.50000000
  0.70000000  0.00000000  0.66666667
  0.70000000  0.00000000  0.83333333
  0.70000000  0.10000000  0.00000000
  0.70000000  0.10000000  0.16666667
  0.70000000  0.10000000  0.33333333
  0.70000000  0.10000000  0.50000000
  0.70000000  0.10000000  0.66666667
  0.70000000  0.10000000  0.83333333
  0.70000000  0.20000000  0.00000000
  0.70000000  0.20000000  0.16666667
  0.70000000  0.20000000  0.33333333
  0.70000000  0.20000000  0.50000000
  0.70000000  0.20000000  0.66666667
  0.70000000  0.20000000  0.83333333
  0.70000000  0.30000000  0.00000000
  0.70000000  0.30000000  0.16666667
  0.70000000  0.30000000  0.33333333
  0.70000000  0.30000000  0.50000000
  0.70000000  0.30000000  0.66666667
  0.70000000  0.30000000  0.83333333
  0.70000000  0.40000000  0.00000000
  0.70000000  0.40000000  0.16666667
  0.70000000  0.40000000  0.33333333
  0.70000000  0.40000000  0.50000000
  0.70000000  0.40000000  0.66666667
  0.70000000  0.40000000  0.83333333
  0.70000000  0.50000000  0.00000000
  0.70000000  0.50000000  0.16666667
  0.70000000  0.50000000  0.33333333
  0.70000000  0.50000000  0.50000000
  0.70000000  0.50000000  0.66666667
  0.70000000  0.50000000  0.83333333
  0.70000000  0.60000000  0.00000000
  0.70000000  0.60000000  0.16666667
  0.70000000  0.60000000  0.33333333
  0.70000000  0.60000000  0.50000000
  0.70000000  0.60000000  0.66666667
  0.70000000  0.60000000  0.83333333
  0.70000000  0.70000000  0.00000000
  0.70000000  0.70000000  0.16666667
  0.70000000  0.70000000  0.33333333
  0.70000000  0.70000000  0.50000000
  0.70000000  0.70000000  0.66666667
  0.70000000  0.70000000  0.83333333
  0.70000000  0.80000000  0.00000000
  0.70000000  0.80000000  0.16666667
  0.70000000  0.80000000  0.33333333
  0.70000000  0.80000000  0.50000000
  0.70000000  0.80000000  0.66666667
  0.70000000  0.80000000  0.83333333
  0.70000000  0.90000000  0.00000000
  0.70000000  0.90000000  0.16666667
  0.70000000  0.90000000  0.33333333
  0.70000000  0.90000000  0.50000000
  0.70000000  0.90000000  0.66666667
  0.70000000  0.90000000  0.83333333
  0.80000000  0.00000000  0.00000000
  0.80000000  0.00000000  0.16666667
  0.80000000  0.00000000  0.33333333
  0.80000000  0.00000000  0.50000000
  0.80000000  0.00000000  0.66666667
  0.80000000  0.00000000  0.83333333
  0.80000000  0.10000000  0.00000000
  0.80000000  0.10000000  0.16666667
  0.80000000  0.10000000  0.33333333
  0.80000000  0.10000000  0.50000000
  0.80000000  0.10000000  0.66666667
  0.80000000  0.10000000  0.83333333
  0.80000000  0.20000000  0.00000000
  0.80000000  0.20000000  0.16666667
  0.80000000  0.20000000  0.33333333
  0.80000000  0.20000000  0.50000000
  0.80000000  0.20000000  0.66666667
  0.80000000  0.20000000  0.83333333
  0.80000000  0.30000000  0.00000000
  0.80000000  0.30000000  0.16666667
  0.80000000  0.30000000  0.33333333
  0.80000000  0.30000000  0.50000000
  0.80000000  0.30000000  0.66666667
  0.80000000  0.30000000  0.83333333
  0.80000000  0.40000000  0.00000000
  0.80000000  0.40000000  0.16666667
  0.80000000  0.40000000  0.33333333
  0.80000000  0.40000000  0.50000000
  0.80000000  0.40000000  0.66666667
  0.80000000  0.40000000  0.83333333
  0.80000000  0.50000000  0.00000000
  0.80000000  0.50000000  0.16666667
  0.80000000  0.50000000  0.33333333
  0.80000000  0.50000000  0.50000000
  0.80000000  0.50000000  0.66666667
  0.80000000  0.50000000  0.83333333
  0.80000000  0.60000000  0.00000000
  0.80000000  0.60000000  0.16666667
  0.80000000  0.60000000  0.33333333
  0.80000000  0.60000000  0.50000000
  0.80000000  0.60000000  0.66666667
  0.80000000  0.60000000  0.83333333
  0.80000000  0.70000000  0.00000000
  0.80000000  0.70000000  0.16666667
  0.80000000  0.70000000  0.33333333
  0.80000000  0.70000000  0.50000000
  0.80000000  0.70000000  0.66666667
  0.80000000  0.70000000  0.83333333
  0.80000000  0.80000000  0.00000000
  0.80000000  0.80000000  0.16666667
  0.80000000  0.80000000  0.33333333
  0.80000000  0.80000000  0.50000000
  0.80000000  0.80000000  0.66666667
  0.80000000  0.80000000  0.83333333
  0.80000000  0.90000000  0.00000000
  0.80000000  0.90000000  0.16666667
  0.80000000  0.90000000  0.33333333
  0.80000000  0.90000000  0.50000000
  0.80000000  0.90000000  0.66666667
  0.80000000  0.90000000  0.83333333
  0.90000000  0.00000000  0.00000000
  0.90000000  0.00000000  0.16666667
  0.90000000  0.00000000  0.33333333
  0.90000000  0.00000000  0.50000000
  0.90000000  0.00000000  0.66666667
  0.90000000  0.00000000  0.83333333
  0.90000000  0.10000000  0.00000000
  0.90000000  0.10000000  0.16666667
  0.90000000  0.10000000  0.33333333
  0.90000000  0.10000000  0.50000000
  0.90000000  0.10000000  0.66666667
  0.90000000  0.10000000  0.83333333
  0.90000000  0.20000000  0.00000000
  0.90000000  0.20000000  0.16666667
  0.90000000  0.20000000  0.33333333
  0.90000000  0.20000000  0.50000000
  0.90000000  0.20000000  0.66666667
  0.90000000  0.20000000  0.83333333
  0.90000000  0.30000000  0.00000000
  0.90000000  0.30000000  0.16666667
  0.90000000  0.30000000  0.33333333
  0.90000000  0.30000000  0.50000000
  0.90000000  0.30000000  0.66666667
  0.90000000  0.30000000  0.83333333
  0.90000000  0.40000000  0.00000000
  0.90000000  0.40000000  0.16666667
  0.90000000  0.40000000  0.33333333
  0.90000000  0.40000000  0.50000000
  0.90000000  0.40000000  0.66666667
  0.90000000  0.40000000  0.83333333
  0.90000000  0.50000000  0.00000000
  0.90000000  0.50000000  0.16666667
  0.90000000  0.50000000  0.33333333
  0.90000000  0.50000000  0.50000000
  0.90000000  0.50000000  0.66666667
  0.90000000  0.50000000  0.83333333
  0.90000000  0.60000000  0.00000000
  0.90000000  0.60000000  0.16666667
  0.90000000  0.60000000  0.33333333
  0.90000000  0.60000000  0.50000000
  0.90000000  0.60000000  0.66666667
  0.90000000  0.60000000  0.83333333
  0.90000000  0.70000000  0.00000000
  0.90000000  0.70000000  0.16666667
  0.90000000  0.70000000  0.33333333
  0.90000000  0.70000000  0.50000000
  0.90000000  0.70000000  0.66666667
  0.90000000  0.70000000  0.83333333
  0.90000000  0.80000000  0.00000000
  0.90000000  0.80000000  0.16666667
  0.90000000  0.80000000  0.33333333
  0.90000000  0.80000000  0.50000000
  0.90000000  0.80000000  0.66666667
  0.90000000  0.80000000  0.83333333
  0.90000000  0.90000000  0.00000000
  0.90000000  0.90000000  0.16666667
  0.90000000  0.90000000  0.33333333
  0.90000000  0.90000000  0.50000000
  0.90000000  0.90000000  0.66666667
  0.90000000  0.90000000  0.83333333
end kpoints

