Al4 O6
1.0
   2.4025134258872294   -1.3870917731676820    4.3720840801180474
   0.0000000000000000    2.7741835463353639    4.3720840801180474
  -2.4025134258872294   -1.3870917731676820    4.3720840801180474
Al O
4 6
direct
   0.6479040497659438    0.6479040497659438    0.6479039729552685 Al
   0.8520960654500693    0.8520959886393940    0.8520959886393940 Al
   0.1479040881712816    0.1479040113606060    0.1479040113606062 Al
   0.3520960270447315    0.3520960270447315    0.3520960270447315 Al
   0.4438545340927642    0.0561455811232490    0.7499999807973312 O
   0.9438545724981018    0.2500000192026690    0.5561454659072360 O
   0.0561455811232490    0.7500000576080067    0.4438544572820888 O
   0.7500000576080066    0.4438545340927641    0.0561455043125736 O
   0.2500000192026689    0.5561455427179112    0.9438544956874264 O
   0.5561455427179112    0.9438544956874265    0.2500000192026688 O
