&CONTROL
  calculation = 'nscf',
  disk_io = 'nowf',
  outdir = 'out/',
  prefix = 'mp-22875',
  pseudo_dir = '/usr/scratch4/magr4985/MG/devEb/pseudo/SG15',
/
&SYSTEM
  celldm(1) = 7.558727548394659,
  degauss = 0.0004593661607577953,
  ecutwfc = 130,
  ibrav = 1,
  nbnd = 20,
  occupations = 'smearing',
  smearing = 'gaussian',
  nat = 2,
  ntyp = 2,
/
&ELECTRONS
  conv_thr = 1d-10,
  diago_full_acc = .TRUE.,
  diago_thr_init = 5d-06,
  diagonalization = 'paro',
/
&IONS
/
&CELL
/
ATOMIC_SPECIES
  Br  79.9040 Br.upf
  Tl  204.3833 Tl.upf
ATOMIC_POSITIONS crystal
  Tl 0.00000000 0.00000000 0.00000000
  Br 0.50000004 0.50000004 0.50000004
K_POINTS tpiba
7
0.0 0.0 -0.5000000000000226 1
0.01 0.0 -0.5000000000000226 1
-0.01 0.0 -0.5000000000000226 1 
0.0 0.01 -0.5000000000000226 1
0.0 -0.01 -0.5000000000000226 1 
0.0 0.0 -0.49000000000002264 1
0.0 0.0 -0.5100000000000227 1 


