num_wann = 36
exclude_bands = 1-60 97-192
num_iter = 500

auto_projections =.true.

begin atoms_frac
Sb 0.7500000576080063 0.03809460292607194 0.14032238077825598
Sb 0.25000001920266923 0.961905473884603 0.8596776960324192
Sb 0.25000001920266907 0.5380946413314094 0.35967765762708165
Sb 0.7500000576080065 0.4619054354792656 0.6403224191835937
Sb 0.25000001920266895 0.32959140531613634 0.03381284259718709
Sb 0.7500000576080066 0.6704086714945386 0.9661872342134881
Sb 0.7500000576080067 0.8295914437214739 0.46618719580815055
Sb 0.25000001920266884 0.17040863308920115 0.5338128810025246
Se 0.7500000576080064 0.12752536979530898 0.948345272843035
Se 0.2500000192026692 0.872474707015366 0.05165480396764011
Se 0.25000001920266907 0.6275254082006465 0.5516548423729777
Se 0.7500000576080065 0.3724746686100285 0.4483452344376974
Se 0.2500000192026689 0.19210068475538217 0.20533133577163734
Se 0.7500000576080066 0.8078993920552929 0.7946687410390377
Se 0.7500000576080066 0.6921007231607197 0.2946687026337003
Se 0.25000001920266895 0.3078993536499554 0.7053313741769749
Se 0.7500000576080063 0.05409869415535689 0.6273491981871118
Se 0.25000001920266923 0.9459013826553182 0.37265087862356344
Se 0.25000001920266907 0.5540987325606944 0.872650917028901
Se 0.7500000576080065 0.4459013442499806 0.12734915978177436
end atoms_frac

geninterp = true
geninterp_alsofirstder = true

begin unit_cell_cart
4.001557 0.000000 0.000000
0.000000 11.713629 0.000000
0.000000 0.000000 12.362072
end unit_cell_cart

mp_grid : 12 4 4

begin kpoints
  0.00000000  0.00000000  0.00000000
  0.00000000  0.00000000  0.25000000
  0.00000000  0.00000000  0.50000000
  0.00000000  0.00000000  0.75000000
  0.00000000  0.25000000  0.00000000
  0.00000000  0.25000000  0.25000000
  0.00000000  0.25000000  0.50000000
  0.00000000  0.25000000  0.75000000
  0.00000000  0.50000000  0.00000000
  0.00000000  0.50000000  0.25000000
  0.00000000  0.50000000  0.50000000
  0.00000000  0.50000000  0.75000000
  0.00000000  0.75000000  0.00000000
  0.00000000  0.75000000  0.25000000
  0.00000000  0.75000000  0.50000000
  0.00000000  0.75000000  0.75000000
  0.08333333  0.00000000  0.00000000
  0.08333333  0.00000000  0.25000000
  0.08333333  0.00000000  0.50000000
  0.08333333  0.00000000  0.75000000
  0.08333333  0.25000000  0.00000000
  0.08333333  0.25000000  0.25000000
  0.08333333  0.25000000  0.50000000
  0.08333333  0.25000000  0.75000000
  0.08333333  0.50000000  0.00000000
  0.08333333  0.50000000  0.25000000
  0.08333333  0.50000000  0.50000000
  0.08333333  0.50000000  0.75000000
  0.08333333  0.75000000  0.00000000
  0.08333333  0.75000000  0.25000000
  0.08333333  0.75000000  0.50000000
  0.08333333  0.75000000  0.75000000
  0.16666667  0.00000000  0.00000000
  0.16666667  0.00000000  0.25000000
  0.16666667  0.00000000  0.50000000
  0.16666667  0.00000000  0.75000000
  0.16666667  0.25000000  0.00000000
  0.16666667  0.25000000  0.25000000
  0.16666667  0.25000000  0.50000000
  0.16666667  0.25000000  0.75000000
  0.16666667  0.50000000  0.00000000
  0.16666667  0.50000000  0.25000000
  0.16666667  0.50000000  0.50000000
  0.16666667  0.50000000  0.75000000
  0.16666667  0.75000000  0.00000000
  0.16666667  0.75000000  0.25000000
  0.16666667  0.75000000  0.50000000
  0.16666667  0.75000000  0.75000000
  0.25000000  0.00000000  0.00000000
  0.25000000  0.00000000  0.25000000
  0.25000000  0.00000000  0.50000000
  0.25000000  0.00000000  0.75000000
  0.25000000  0.25000000  0.00000000
  0.25000000  0.25000000  0.25000000
  0.25000000  0.25000000  0.50000000
  0.25000000  0.25000000  0.75000000
  0.25000000  0.50000000  0.00000000
  0.25000000  0.50000000  0.25000000
  0.25000000  0.50000000  0.50000000
  0.25000000  0.50000000  0.75000000
  0.25000000  0.75000000  0.00000000
  0.25000000  0.75000000  0.25000000
  0.25000000  0.75000000  0.50000000
  0.25000000  0.75000000  0.75000000
  0.33333333  0.00000000  0.00000000
  0.33333333  0.00000000  0.25000000
  0.33333333  0.00000000  0.50000000
  0.33333333  0.00000000  0.75000000
  0.33333333  0.25000000  0.00000000
  0.33333333  0.25000000  0.25000000
  0.33333333  0.25000000  0.50000000
  0.33333333  0.25000000  0.75000000
  0.33333333  0.50000000  0.00000000
  0.33333333  0.50000000  0.25000000
  0.33333333  0.50000000  0.50000000
  0.33333333  0.50000000  0.75000000
  0.33333333  0.75000000  0.00000000
  0.33333333  0.75000000  0.25000000
  0.33333333  0.75000000  0.50000000
  0.33333333  0.75000000  0.75000000
  0.41666667  0.00000000  0.00000000
  0.41666667  0.00000000  0.25000000
  0.41666667  0.00000000  0.50000000
  0.41666667  0.00000000  0.75000000
  0.41666667  0.25000000  0.00000000
  0.41666667  0.25000000  0.25000000
  0.41666667  0.25000000  0.50000000
  0.41666667  0.25000000  0.75000000
  0.41666667  0.50000000  0.00000000
  0.41666667  0.50000000  0.25000000
  0.41666667  0.50000000  0.50000000
  0.41666667  0.50000000  0.75000000
  0.41666667  0.75000000  0.00000000
  0.41666667  0.75000000  0.25000000
  0.41666667  0.75000000  0.50000000
  0.41666667  0.75000000  0.75000000
  0.50000000  0.00000000  0.00000000
  0.50000000  0.00000000  0.25000000
  0.50000000  0.00000000  0.50000000
  0.50000000  0.00000000  0.75000000
  0.50000000  0.25000000  0.00000000
  0.50000000  0.25000000  0.25000000
  0.50000000  0.25000000  0.50000000
  0.50000000  0.25000000  0.75000000
  0.50000000  0.50000000  0.00000000
  0.50000000  0.50000000  0.25000000
  0.50000000  0.50000000  0.50000000
  0.50000000  0.50000000  0.75000000
  0.50000000  0.75000000  0.00000000
  0.50000000  0.75000000  0.25000000
  0.50000000  0.75000000  0.50000000
  0.50000000  0.75000000  0.75000000
  0.58333333  0.00000000  0.00000000
  0.58333333  0.00000000  0.25000000
  0.58333333  0.00000000  0.50000000
  0.58333333  0.00000000  0.75000000
  0.58333333  0.25000000  0.00000000
  0.58333333  0.25000000  0.25000000
  0.58333333  0.25000000  0.50000000
  0.58333333  0.25000000  0.75000000
  0.58333333  0.50000000  0.00000000
  0.58333333  0.50000000  0.25000000
  0.58333333  0.50000000  0.50000000
  0.58333333  0.50000000  0.75000000
  0.58333333  0.75000000  0.00000000
  0.58333333  0.75000000  0.25000000
  0.58333333  0.75000000  0.50000000
  0.58333333  0.75000000  0.75000000
  0.66666667  0.00000000  0.00000000
  0.66666667  0.00000000  0.25000000
  0.66666667  0.00000000  0.50000000
  0.66666667  0.00000000  0.75000000
  0.66666667  0.25000000  0.00000000
  0.66666667  0.25000000  0.25000000
  0.66666667  0.25000000  0.50000000
  0.66666667  0.25000000  0.75000000
  0.66666667  0.50000000  0.00000000
  0.66666667  0.50000000  0.25000000
  0.66666667  0.50000000  0.50000000
  0.66666667  0.50000000  0.75000000
  0.66666667  0.75000000  0.00000000
  0.66666667  0.75000000  0.25000000
  0.66666667  0.75000000  0.50000000
  0.66666667  0.75000000  0.75000000
  0.75000000  0.00000000  0.00000000
  0.75000000  0.00000000  0.25000000
  0.75000000  0.00000000  0.50000000
  0.75000000  0.00000000  0.75000000
  0.75000000  0.25000000  0.00000000
  0.75000000  0.25000000  0.25000000
  0.75000000  0.25000000  0.50000000
  0.75000000  0.25000000  0.75000000
  0.75000000  0.50000000  0.00000000
  0.75000000  0.50000000  0.25000000
  0.75000000  0.50000000  0.50000000
  0.75000000  0.50000000  0.75000000
  0.75000000  0.75000000  0.00000000
  0.75000000  0.75000000  0.25000000
  0.75000000  0.75000000  0.50000000
  0.75000000  0.75000000  0.75000000
  0.83333333  0.00000000  0.00000000
  0.83333333  0.00000000  0.25000000
  0.83333333  0.00000000  0.50000000
  0.83333333  0.00000000  0.75000000
  0.83333333  0.25000000  0.00000000
  0.83333333  0.25000000  0.25000000
  0.83333333  0.25000000  0.50000000
  0.83333333  0.25000000  0.75000000
  0.83333333  0.50000000  0.00000000
  0.83333333  0.50000000  0.25000000
  0.83333333  0.50000000  0.50000000
  0.83333333  0.50000000  0.75000000
  0.83333333  0.75000000  0.00000000
  0.83333333  0.75000000  0.25000000
  0.83333333  0.75000000  0.50000000
  0.83333333  0.75000000  0.75000000
  0.91666667  0.00000000  0.00000000
  0.91666667  0.00000000  0.25000000
  0.91666667  0.00000000  0.50000000
  0.91666667  0.00000000  0.75000000
  0.91666667  0.25000000  0.00000000
  0.91666667  0.25000000  0.25000000
  0.91666667  0.25000000  0.50000000
  0.91666667  0.25000000  0.75000000
  0.91666667  0.50000000  0.00000000
  0.91666667  0.50000000  0.25000000
  0.91666667  0.50000000  0.50000000
  0.91666667  0.50000000  0.75000000
  0.91666667  0.75000000  0.00000000
  0.91666667  0.75000000  0.25000000
  0.91666667  0.75000000  0.50000000
  0.91666667  0.75000000  0.75000000
end kpoints

