Li1 F1
1.0
  -2.0417134170143876    0.0000000000000000    2.0417134170143876
   0.0000000000000000    2.0417134170143876    2.0417134170143876
  -2.0417134170143876    2.0417134170143876    0.0000000000000000
Li F
1 1
direct
   0.0000000000000000    0.0000000000000000    0.0000000000000000 Li
   0.4999999615946624    0.5000000384053376    0.4999999615946624 F
