Si1 C1
1.0
  -2.1769964565748627    0.0000000000000000    2.1769964565748627
   0.0000000000000000    2.1769964565748627    2.1769964565748627
  -2.1769964565748627    2.1769964565748627    0.0000000000000000
Si C
1 1
direct
   0.2500000192026689    0.2500000960133439    0.2499999423919934 Si
   0.0000000000000000    0.0000000000000000    0.0000000000000000 C
