Rb1 F1
1.0
   3.3704469211136971    0.0000000000000000    0.0000000000000000
   0.0000000000000000    3.3704469211136971    0.0000000000000000
   0.0000000000000000    0.0000000000000000    3.3704469211136971
Rb F
1 1
direct
   0.0000000000000000    0.0000000000000000    0.0000000000000000 Rb
   0.5000000384053376    0.5000000384053376    0.5000000384053376 F
