Ne1
1.0
  -2.0975096428074163    0.0000000000000000    2.0975096428074163
   0.0000000000000000    2.0975096428074163    2.0975096428074163
  -2.0975096428074163    2.0975096428074163    0.0000000000000000
Ne
1
direct
   0.0000000000000000    0.0000000000000000    0.0000000000000000 Ne
