Na1 Cl1
1.0
  -2.7940630031061016    0.0000000000000000    2.7940630031061016
   0.0000000000000000    2.7940630031061016    2.7940630031061016
  -2.7940630031061016    2.7940630031061016    0.0000000000000000
Na Cl
1 1
direct
   0.0000000000000000    0.0000000000000000    0.0000000000000000 Na
   0.4999999615946624    0.5000000384053376    0.4999999615946624 Cl
