num_wann = 24
exclude_bands = 1-32 57-112
num_iter = 500

auto_projections =.true.

begin atoms_frac
Pb 0.2500000192026688 0.23348406793406745 0.42250843245315534
Pb 0.7500000576080065 0.7665160088766076 0.57749164435752
Pb 0.25000001920266895 0.733484106339405 0.07749160595218227
Pb 0.7500000576080065 0.2665159704712701 0.9225084708584931
Br 0.2500000192026688 0.009056530695638247 0.6561843804019615
Br 0.7500000576080066 0.9909435461150369 0.34381569640871384
Br 0.2500000192026689 0.5090565691009759 0.8438157348140514
Br 0.7500000576080065 0.49094350770969936 0.15618434199662376
Br 0.7500000576080066 0.8587217059589889 0.9137710501873659
Br 0.2500000192026688 0.14127837085168624 0.08622902662330925
Br 0.7500000576080065 0.3587216675536513 0.5862290650286468
Br 0.25000001920266895 0.6412784092570238 0.41377101178202835
end atoms_frac

geninterp = true
geninterp_alsofirstder = true

begin unit_cell_cart
4.743111 0.000000 0.000000
0.000000 8.130191 0.000000
0.000000 0.000000 9.879438
end unit_cell_cart

mp_grid : 10 6 4

begin kpoints
  0.00000000  0.00000000  0.00000000
  0.00000000  0.00000000  0.25000000
  0.00000000  0.00000000  0.50000000
  0.00000000  0.00000000  0.75000000
  0.00000000  0.16666667  0.00000000
  0.00000000  0.16666667  0.25000000
  0.00000000  0.16666667  0.50000000
  0.00000000  0.16666667  0.75000000
  0.00000000  0.33333333  0.00000000
  0.00000000  0.33333333  0.25000000
  0.00000000  0.33333333  0.50000000
  0.00000000  0.33333333  0.75000000
  0.00000000  0.50000000  0.00000000
  0.00000000  0.50000000  0.25000000
  0.00000000  0.50000000  0.50000000
  0.00000000  0.50000000  0.75000000
  0.00000000  0.66666667  0.00000000
  0.00000000  0.66666667  0.25000000
  0.00000000  0.66666667  0.50000000
  0.00000000  0.66666667  0.75000000
  0.00000000  0.83333333  0.00000000
  0.00000000  0.83333333  0.25000000
  0.00000000  0.83333333  0.50000000
  0.00000000  0.83333333  0.75000000
  0.10000000  0.00000000  0.00000000
  0.10000000  0.00000000  0.25000000
  0.10000000  0.00000000  0.50000000
  0.10000000  0.00000000  0.75000000
  0.10000000  0.16666667  0.00000000
  0.10000000  0.16666667  0.25000000
  0.10000000  0.16666667  0.50000000
  0.10000000  0.16666667  0.75000000
  0.10000000  0.33333333  0.00000000
  0.10000000  0.33333333  0.25000000
  0.10000000  0.33333333  0.50000000
  0.10000000  0.33333333  0.75000000
  0.10000000  0.50000000  0.00000000
  0.10000000  0.50000000  0.25000000
  0.10000000  0.50000000  0.50000000
  0.10000000  0.50000000  0.75000000
  0.10000000  0.66666667  0.00000000
  0.10000000  0.66666667  0.25000000
  0.10000000  0.66666667  0.50000000
  0.10000000  0.66666667  0.75000000
  0.10000000  0.83333333  0.00000000
  0.10000000  0.83333333  0.25000000
  0.10000000  0.83333333  0.50000000
  0.10000000  0.83333333  0.75000000
  0.20000000  0.00000000  0.00000000
  0.20000000  0.00000000  0.25000000
  0.20000000  0.00000000  0.50000000
  0.20000000  0.00000000  0.75000000
  0.20000000  0.16666667  0.00000000
  0.20000000  0.16666667  0.25000000
  0.20000000  0.16666667  0.50000000
  0.20000000  0.16666667  0.75000000
  0.20000000  0.33333333  0.00000000
  0.20000000  0.33333333  0.25000000
  0.20000000  0.33333333  0.50000000
  0.20000000  0.33333333  0.75000000
  0.20000000  0.50000000  0.00000000
  0.20000000  0.50000000  0.25000000
  0.20000000  0.50000000  0.50000000
  0.20000000  0.50000000  0.75000000
  0.20000000  0.66666667  0.00000000
  0.20000000  0.66666667  0.25000000
  0.20000000  0.66666667  0.50000000
  0.20000000  0.66666667  0.75000000
  0.20000000  0.83333333  0.00000000
  0.20000000  0.83333333  0.25000000
  0.20000000  0.83333333  0.50000000
  0.20000000  0.83333333  0.75000000
  0.30000000  0.00000000  0.00000000
  0.30000000  0.00000000  0.25000000
  0.30000000  0.00000000  0.50000000
  0.30000000  0.00000000  0.75000000
  0.30000000  0.16666667  0.00000000
  0.30000000  0.16666667  0.25000000
  0.30000000  0.16666667  0.50000000
  0.30000000  0.16666667  0.75000000
  0.30000000  0.33333333  0.00000000
  0.30000000  0.33333333  0.25000000
  0.30000000  0.33333333  0.50000000
  0.30000000  0.33333333  0.75000000
  0.30000000  0.50000000  0.00000000
  0.30000000  0.50000000  0.25000000
  0.30000000  0.50000000  0.50000000
  0.30000000  0.50000000  0.75000000
  0.30000000  0.66666667  0.00000000
  0.30000000  0.66666667  0.25000000
  0.30000000  0.66666667  0.50000000
  0.30000000  0.66666667  0.75000000
  0.30000000  0.83333333  0.00000000
  0.30000000  0.83333333  0.25000000
  0.30000000  0.83333333  0.50000000
  0.30000000  0.83333333  0.75000000
  0.40000000  0.00000000  0.00000000
  0.40000000  0.00000000  0.25000000
  0.40000000  0.00000000  0.50000000
  0.40000000  0.00000000  0.75000000
  0.40000000  0.16666667  0.00000000
  0.40000000  0.16666667  0.25000000
  0.40000000  0.16666667  0.50000000
  0.40000000  0.16666667  0.75000000
  0.40000000  0.33333333  0.00000000
  0.40000000  0.33333333  0.25000000
  0.40000000  0.33333333  0.50000000
  0.40000000  0.33333333  0.75000000
  0.40000000  0.50000000  0.00000000
  0.40000000  0.50000000  0.25000000
  0.40000000  0.50000000  0.50000000
  0.40000000  0.50000000  0.75000000
  0.40000000  0.66666667  0.00000000
  0.40000000  0.66666667  0.25000000
  0.40000000  0.66666667  0.50000000
  0.40000000  0.66666667  0.75000000
  0.40000000  0.83333333  0.00000000
  0.40000000  0.83333333  0.25000000
  0.40000000  0.83333333  0.50000000
  0.40000000  0.83333333  0.75000000
  0.50000000  0.00000000  0.00000000
  0.50000000  0.00000000  0.25000000
  0.50000000  0.00000000  0.50000000
  0.50000000  0.00000000  0.75000000
  0.50000000  0.16666667  0.00000000
  0.50000000  0.16666667  0.25000000
  0.50000000  0.16666667  0.50000000
  0.50000000  0.16666667  0.75000000
  0.50000000  0.33333333  0.00000000
  0.50000000  0.33333333  0.25000000
  0.50000000  0.33333333  0.50000000
  0.50000000  0.33333333  0.75000000
  0.50000000  0.50000000  0.00000000
  0.50000000  0.50000000  0.25000000
  0.50000000  0.50000000  0.50000000
  0.50000000  0.50000000  0.75000000
  0.50000000  0.66666667  0.00000000
  0.50000000  0.66666667  0.25000000
  0.50000000  0.66666667  0.50000000
  0.50000000  0.66666667  0.75000000
  0.50000000  0.83333333  0.00000000
  0.50000000  0.83333333  0.25000000
  0.50000000  0.83333333  0.50000000
  0.50000000  0.83333333  0.75000000
  0.60000000  0.00000000  0.00000000
  0.60000000  0.00000000  0.25000000
  0.60000000  0.00000000  0.50000000
  0.60000000  0.00000000  0.75000000
  0.60000000  0.16666667  0.00000000
  0.60000000  0.16666667  0.25000000
  0.60000000  0.16666667  0.50000000
  0.60000000  0.16666667  0.75000000
  0.60000000  0.33333333  0.00000000
  0.60000000  0.33333333  0.25000000
  0.60000000  0.33333333  0.50000000
  0.60000000  0.33333333  0.75000000
  0.60000000  0.50000000  0.00000000
  0.60000000  0.50000000  0.25000000
  0.60000000  0.50000000  0.50000000
  0.60000000  0.50000000  0.75000000
  0.60000000  0.66666667  0.00000000
  0.60000000  0.66666667  0.25000000
  0.60000000  0.66666667  0.50000000
  0.60000000  0.66666667  0.75000000
  0.60000000  0.83333333  0.00000000
  0.60000000  0.83333333  0.25000000
  0.60000000  0.83333333  0.50000000
  0.60000000  0.83333333  0.75000000
  0.70000000  0.00000000  0.00000000
  0.70000000  0.00000000  0.25000000
  0.70000000  0.00000000  0.50000000
  0.70000000  0.00000000  0.75000000
  0.70000000  0.16666667  0.00000000
  0.70000000  0.16666667  0.25000000
  0.70000000  0.16666667  0.50000000
  0.70000000  0.16666667  0.75000000
  0.70000000  0.33333333  0.00000000
  0.70000000  0.33333333  0.25000000
  0.70000000  0.33333333  0.50000000
  0.70000000  0.33333333  0.75000000
  0.70000000  0.50000000  0.00000000
  0.70000000  0.50000000  0.25000000
  0.70000000  0.50000000  0.50000000
  0.70000000  0.50000000  0.75000000
  0.70000000  0.66666667  0.00000000
  0.70000000  0.66666667  0.25000000
  0.70000000  0.66666667  0.50000000
  0.70000000  0.66666667  0.75000000
  0.70000000  0.83333333  0.00000000
  0.70000000  0.83333333  0.25000000
  0.70000000  0.83333333  0.50000000
  0.70000000  0.83333333  0.75000000
  0.80000000  0.00000000  0.00000000
  0.80000000  0.00000000  0.25000000
  0.80000000  0.00000000  0.50000000
  0.80000000  0.00000000  0.75000000
  0.80000000  0.16666667  0.00000000
  0.80000000  0.16666667  0.25000000
  0.80000000  0.16666667  0.50000000
  0.80000000  0.16666667  0.75000000
  0.80000000  0.33333333  0.00000000
  0.80000000  0.33333333  0.25000000
  0.80000000  0.33333333  0.50000000
  0.80000000  0.33333333  0.75000000
  0.80000000  0.50000000  0.00000000
  0.80000000  0.50000000  0.25000000
  0.80000000  0.50000000  0.50000000
  0.80000000  0.50000000  0.75000000
  0.80000000  0.66666667  0.00000000
  0.80000000  0.66666667  0.25000000
  0.80000000  0.66666667  0.50000000
  0.80000000  0.66666667  0.75000000
  0.80000000  0.83333333  0.00000000
  0.80000000  0.83333333  0.25000000
  0.80000000  0.83333333  0.50000000
  0.80000000  0.83333333  0.75000000
  0.90000000  0.00000000  0.00000000
  0.90000000  0.00000000  0.25000000
  0.90000000  0.00000000  0.50000000
  0.90000000  0.00000000  0.75000000
  0.90000000  0.16666667  0.00000000
  0.90000000  0.16666667  0.25000000
  0.90000000  0.16666667  0.50000000
  0.90000000  0.16666667  0.75000000
  0.90000000  0.33333333  0.00000000
  0.90000000  0.33333333  0.25000000
  0.90000000  0.33333333  0.50000000
  0.90000000  0.33333333  0.75000000
  0.90000000  0.50000000  0.00000000
  0.90000000  0.50000000  0.25000000
  0.90000000  0.50000000  0.50000000
  0.90000000  0.50000000  0.75000000
  0.90000000  0.66666667  0.00000000
  0.90000000  0.66666667  0.25000000
  0.90000000  0.66666667  0.50000000
  0.90000000  0.66666667  0.75000000
  0.90000000  0.83333333  0.00000000
  0.90000000  0.83333333  0.25000000
  0.90000000  0.83333333  0.50000000
  0.90000000  0.83333333  0.75000000
end kpoints

