&inputpp
    prefix = 'mp-732337'
    outdir='out/',
    plot_num=10,
    emin = 4.213314243515667,
    emax = 5.413314243515667,
    delta_e = 0.1,
/
&plot
    iflag=3,
    output_format=6,
    fileout='ldos.cube',
/
