&CONTROL
  calculation = 'nscf',
  disk_io = 'low',
  outdir = 'out/',
  prefix = 'mp-66',
  pseudo_dir = '/usr/scratch4/magr4985/MG/devEb/pseudo/SG15',
/
&SYSTEM
  celldm(1) = 6.728832571353277,
  degauss = 0.0004593661607577953,
  ecutwfc = 130,
  force_symmorphic = .FALSE.,
  ibrav = 2,
  nbnd = 8,
  nosym = .FALSE.,
  occupations = 'smearing',
  smearing = 'gaussian',
  nat = 2,
  ntyp = 1,
/
&ELECTRONS
  conv_thr = 1d-10,
  diago_full_acc = .TRUE.,
  diago_thr_init = 5d-06,
  diagonalization = 'david',
/
&IONS
/
&CELL
/
ATOMIC_SPECIES
  C  12.0107 C.upf
ATOMIC_POSITIONS crystal
  C 0.00000000 0.00000008 0.99999992
  C 0.74999998 0.75000006 0.74999998
K_POINTS automatic
  12 12 12 0 0 0

