&inputpp
    prefix = 'mp-23167'
    outdir='out/',
    plot_num=10,
    emin = 7.772681404609571,
    emax = 8.97268140460957,
    delta_e = 0.1,
/
&plot
    iflag=3,
    output_format=6,
    fileout='ldos.cube',
/
