Sr1 S1
1.0
  -3.0240165063846489    0.0000000000000000    3.0240165063846489
   0.0000000000000000    3.0240165063846489    3.0240165063846489
  -3.0240165063846489    3.0240165063846489    0.0000000000000000
Sr S
1 1
direct
   0.0000000000000000    0.0000000000000000    0.0000000000000000 Sr
   0.4999999615946623    0.5000000384053377    0.4999999615946623 S
