pymatgen with grid density = 3000 / number of atoms
0
Gamma
14 14 14
