Kr1
1.0
  -2.8965142351619568    0.0000000000000000    2.8965142351619568
   0.0000000000000000    2.8965142351619568    2.8965142351619568
  -2.8965142351619568    2.8965142351619568    0.0000000000000000
Kr
1
direct
   0.0000000000000000    0.0000000000000000    0.0000000000000000 Kr
