Si2
1.0
  -2.7218509774025148    0.0000000000000000    2.7218509774025148
   0.0000000000000000    2.7218509774025148    2.7218509774025148
  -2.7218509774025148    2.7218509774025148    0.0000000000000000
Si
2
direct
   0.2499999423919935    0.2500000960133444    0.2500000192026687 Si
   0.5000000384053376    0.5000000384053376    0.4999999615946624 Si
