&inputpp
    prefix = 'mp-1143'
    outdir='out/',
    plot_num=10,
    emin = 15.547021375246523,
    emax = 16.547021375246523,
    delta_e = 0.1,
/
&plot
    iflag=3,
    output_format=6,
    fileout='ldos.cube',
/
