num_wann = 8
exclude_bands = 1-22 31-60
num_iter = 500

auto_projections =.true.

begin atoms_frac
In 0.603266856337331 0.6032667795266556 0.7500000576080067
In 0.3967332204733445 0.39673322047334414 0.2500000192026689
I 0.8539038255889245 0.8539037487782489 0.7500000576080067
I 0.14609625122175102 0.1460962512217509 0.2500000192026689
end atoms_frac

geninterp = true
geninterp_alsofirstder = true

begin unit_cell_cart
2.430122 6.432632 0.000000
-2.430122 6.432632 0.000000
0.000000 0.000000 4.833636
end unit_cell_cart

mp_grid : 8 8 12

begin kpoints
  0.00000000  0.00000000  0.00000000
  0.00000000  0.00000000  0.08333333
  0.00000000  0.00000000  0.16666667
  0.00000000  0.00000000  0.25000000
  0.00000000  0.00000000  0.33333333
  0.00000000  0.00000000  0.41666667
  0.00000000  0.00000000  0.50000000
  0.00000000  0.00000000  0.58333333
  0.00000000  0.00000000  0.66666667
  0.00000000  0.00000000  0.75000000
  0.00000000  0.00000000  0.83333333
  0.00000000  0.00000000  0.91666667
  0.00000000  0.12500000  0.00000000
  0.00000000  0.12500000  0.08333333
  0.00000000  0.12500000  0.16666667
  0.00000000  0.12500000  0.25000000
  0.00000000  0.12500000  0.33333333
  0.00000000  0.12500000  0.41666667
  0.00000000  0.12500000  0.50000000
  0.00000000  0.12500000  0.58333333
  0.00000000  0.12500000  0.66666667
  0.00000000  0.12500000  0.75000000
  0.00000000  0.12500000  0.83333333
  0.00000000  0.12500000  0.91666667
  0.00000000  0.25000000  0.00000000
  0.00000000  0.25000000  0.08333333
  0.00000000  0.25000000  0.16666667
  0.00000000  0.25000000  0.25000000
  0.00000000  0.25000000  0.33333333
  0.00000000  0.25000000  0.41666667
  0.00000000  0.25000000  0.50000000
  0.00000000  0.25000000  0.58333333
  0.00000000  0.25000000  0.66666667
  0.00000000  0.25000000  0.75000000
  0.00000000  0.25000000  0.83333333
  0.00000000  0.25000000  0.91666667
  0.00000000  0.37500000  0.00000000
  0.00000000  0.37500000  0.08333333
  0.00000000  0.37500000  0.16666667
  0.00000000  0.37500000  0.25000000
  0.00000000  0.37500000  0.33333333
  0.00000000  0.37500000  0.41666667
  0.00000000  0.37500000  0.50000000
  0.00000000  0.37500000  0.58333333
  0.00000000  0.37500000  0.66666667
  0.00000000  0.37500000  0.75000000
  0.00000000  0.37500000  0.83333333
  0.00000000  0.37500000  0.91666667
  0.00000000  0.50000000  0.00000000
  0.00000000  0.50000000  0.08333333
  0.00000000  0.50000000  0.16666667
  0.00000000  0.50000000  0.25000000
  0.00000000  0.50000000  0.33333333
  0.00000000  0.50000000  0.41666667
  0.00000000  0.50000000  0.50000000
  0.00000000  0.50000000  0.58333333
  0.00000000  0.50000000  0.66666667
  0.00000000  0.50000000  0.75000000
  0.00000000  0.50000000  0.83333333
  0.00000000  0.50000000  0.91666667
  0.00000000  0.62500000  0.00000000
  0.00000000  0.62500000  0.08333333
  0.00000000  0.62500000  0.16666667
  0.00000000  0.62500000  0.25000000
  0.00000000  0.62500000  0.33333333
  0.00000000  0.62500000  0.41666667
  0.00000000  0.62500000  0.50000000
  0.00000000  0.62500000  0.58333333
  0.00000000  0.62500000  0.66666667
  0.00000000  0.62500000  0.75000000
  0.00000000  0.62500000  0.83333333
  0.00000000  0.62500000  0.91666667
  0.00000000  0.75000000  0.00000000
  0.00000000  0.75000000  0.08333333
  0.00000000  0.75000000  0.16666667
  0.00000000  0.75000000  0.25000000
  0.00000000  0.75000000  0.33333333
  0.00000000  0.75000000  0.41666667
  0.00000000  0.75000000  0.50000000
  0.00000000  0.75000000  0.58333333
  0.00000000  0.75000000  0.66666667
  0.00000000  0.75000000  0.75000000
  0.00000000  0.75000000  0.83333333
  0.00000000  0.75000000  0.91666667
  0.00000000  0.87500000  0.00000000
  0.00000000  0.87500000  0.08333333
  0.00000000  0.87500000  0.16666667
  0.00000000  0.87500000  0.25000000
  0.00000000  0.87500000  0.33333333
  0.00000000  0.87500000  0.41666667
  0.00000000  0.87500000  0.50000000
  0.00000000  0.87500000  0.58333333
  0.00000000  0.87500000  0.66666667
  0.00000000  0.87500000  0.75000000
  0.00000000  0.87500000  0.83333333
  0.00000000  0.87500000  0.91666667
  0.12500000  0.00000000  0.00000000
  0.12500000  0.00000000  0.08333333
  0.12500000  0.00000000  0.16666667
  0.12500000  0.00000000  0.25000000
  0.12500000  0.00000000  0.33333333
  0.12500000  0.00000000  0.41666667
  0.12500000  0.00000000  0.50000000
  0.12500000  0.00000000  0.58333333
  0.12500000  0.00000000  0.66666667
  0.12500000  0.00000000  0.75000000
  0.12500000  0.00000000  0.83333333
  0.12500000  0.00000000  0.91666667
  0.12500000  0.12500000  0.00000000
  0.12500000  0.12500000  0.08333333
  0.12500000  0.12500000  0.16666667
  0.12500000  0.12500000  0.25000000
  0.12500000  0.12500000  0.33333333
  0.12500000  0.12500000  0.41666667
  0.12500000  0.12500000  0.50000000
  0.12500000  0.12500000  0.58333333
  0.12500000  0.12500000  0.66666667
  0.12500000  0.12500000  0.75000000
  0.12500000  0.12500000  0.83333333
  0.12500000  0.12500000  0.91666667
  0.12500000  0.25000000  0.00000000
  0.12500000  0.25000000  0.08333333
  0.12500000  0.25000000  0.16666667
  0.12500000  0.25000000  0.25000000
  0.12500000  0.25000000  0.33333333
  0.12500000  0.25000000  0.41666667
  0.12500000  0.25000000  0.50000000
  0.12500000  0.25000000  0.58333333
  0.12500000  0.25000000  0.66666667
  0.12500000  0.25000000  0.75000000
  0.12500000  0.25000000  0.83333333
  0.12500000  0.25000000  0.91666667
  0.12500000  0.37500000  0.00000000
  0.12500000  0.37500000  0.08333333
  0.12500000  0.37500000  0.16666667
  0.12500000  0.37500000  0.25000000
  0.12500000  0.37500000  0.33333333
  0.12500000  0.37500000  0.41666667
  0.12500000  0.37500000  0.50000000
  0.12500000  0.37500000  0.58333333
  0.12500000  0.37500000  0.66666667
  0.12500000  0.37500000  0.75000000
  0.12500000  0.37500000  0.83333333
  0.12500000  0.37500000  0.91666667
  0.12500000  0.50000000  0.00000000
  0.12500000  0.50000000  0.08333333
  0.12500000  0.50000000  0.16666667
  0.12500000  0.50000000  0.25000000
  0.12500000  0.50000000  0.33333333
  0.12500000  0.50000000  0.41666667
  0.12500000  0.50000000  0.50000000
  0.12500000  0.50000000  0.58333333
  0.12500000  0.50000000  0.66666667
  0.12500000  0.50000000  0.75000000
  0.12500000  0.50000000  0.83333333
  0.12500000  0.50000000  0.91666667
  0.12500000  0.62500000  0.00000000
  0.12500000  0.62500000  0.08333333
  0.12500000  0.62500000  0.16666667
  0.12500000  0.62500000  0.25000000
  0.12500000  0.62500000  0.33333333
  0.12500000  0.62500000  0.41666667
  0.12500000  0.62500000  0.50000000
  0.12500000  0.62500000  0.58333333
  0.12500000  0.62500000  0.66666667
  0.12500000  0.62500000  0.75000000
  0.12500000  0.62500000  0.83333333
  0.12500000  0.62500000  0.91666667
  0.12500000  0.75000000  0.00000000
  0.12500000  0.75000000  0.08333333
  0.12500000  0.75000000  0.16666667
  0.12500000  0.75000000  0.25000000
  0.12500000  0.75000000  0.33333333
  0.12500000  0.75000000  0.41666667
  0.12500000  0.75000000  0.50000000
  0.12500000  0.75000000  0.58333333
  0.12500000  0.75000000  0.66666667
  0.12500000  0.75000000  0.75000000
  0.12500000  0.75000000  0.83333333
  0.12500000  0.75000000  0.91666667
  0.12500000  0.87500000  0.00000000
  0.12500000  0.87500000  0.08333333
  0.12500000  0.87500000  0.16666667
  0.12500000  0.87500000  0.25000000
  0.12500000  0.87500000  0.33333333
  0.12500000  0.87500000  0.41666667
  0.12500000  0.87500000  0.50000000
  0.12500000  0.87500000  0.58333333
  0.12500000  0.87500000  0.66666667
  0.12500000  0.87500000  0.75000000
  0.12500000  0.87500000  0.83333333
  0.12500000  0.87500000  0.91666667
  0.25000000  0.00000000  0.00000000
  0.25000000  0.00000000  0.08333333
  0.25000000  0.00000000  0.16666667
  0.25000000  0.00000000  0.25000000
  0.25000000  0.00000000  0.33333333
  0.25000000  0.00000000  0.41666667
  0.25000000  0.00000000  0.50000000
  0.25000000  0.00000000  0.58333333
  0.25000000  0.00000000  0.66666667
  0.25000000  0.00000000  0.75000000
  0.25000000  0.00000000  0.83333333
  0.25000000  0.00000000  0.91666667
  0.25000000  0.12500000  0.00000000
  0.25000000  0.12500000  0.08333333
  0.25000000  0.12500000  0.16666667
  0.25000000  0.12500000  0.25000000
  0.25000000  0.12500000  0.33333333
  0.25000000  0.12500000  0.41666667
  0.25000000  0.12500000  0.50000000
  0.25000000  0.12500000  0.58333333
  0.25000000  0.12500000  0.66666667
  0.25000000  0.12500000  0.75000000
  0.25000000  0.12500000  0.83333333
  0.25000000  0.12500000  0.91666667
  0.25000000  0.25000000  0.00000000
  0.25000000  0.25000000  0.08333333
  0.25000000  0.25000000  0.16666667
  0.25000000  0.25000000  0.25000000
  0.25000000  0.25000000  0.33333333
  0.25000000  0.25000000  0.41666667
  0.25000000  0.25000000  0.50000000
  0.25000000  0.25000000  0.58333333
  0.25000000  0.25000000  0.66666667
  0.25000000  0.25000000  0.75000000
  0.25000000  0.25000000  0.83333333
  0.25000000  0.25000000  0.91666667
  0.25000000  0.37500000  0.00000000
  0.25000000  0.37500000  0.08333333
  0.25000000  0.37500000  0.16666667
  0.25000000  0.37500000  0.25000000
  0.25000000  0.37500000  0.33333333
  0.25000000  0.37500000  0.41666667
  0.25000000  0.37500000  0.50000000
  0.25000000  0.37500000  0.58333333
  0.25000000  0.37500000  0.66666667
  0.25000000  0.37500000  0.75000000
  0.25000000  0.37500000  0.83333333
  0.25000000  0.37500000  0.91666667
  0.25000000  0.50000000  0.00000000
  0.25000000  0.50000000  0.08333333
  0.25000000  0.50000000  0.16666667
  0.25000000  0.50000000  0.25000000
  0.25000000  0.50000000  0.33333333
  0.25000000  0.50000000  0.41666667
  0.25000000  0.50000000  0.50000000
  0.25000000  0.50000000  0.58333333
  0.25000000  0.50000000  0.66666667
  0.25000000  0.50000000  0.75000000
  0.25000000  0.50000000  0.83333333
  0.25000000  0.50000000  0.91666667
  0.25000000  0.62500000  0.00000000
  0.25000000  0.62500000  0.08333333
  0.25000000  0.62500000  0.16666667
  0.25000000  0.62500000  0.25000000
  0.25000000  0.62500000  0.33333333
  0.25000000  0.62500000  0.41666667
  0.25000000  0.62500000  0.50000000
  0.25000000  0.62500000  0.58333333
  0.25000000  0.62500000  0.66666667
  0.25000000  0.62500000  0.75000000
  0.25000000  0.62500000  0.83333333
  0.25000000  0.62500000  0.91666667
  0.25000000  0.75000000  0.00000000
  0.25000000  0.75000000  0.08333333
  0.25000000  0.75000000  0.16666667
  0.25000000  0.75000000  0.25000000
  0.25000000  0.75000000  0.33333333
  0.25000000  0.75000000  0.41666667
  0.25000000  0.75000000  0.50000000
  0.25000000  0.75000000  0.58333333
  0.25000000  0.75000000  0.66666667
  0.25000000  0.75000000  0.75000000
  0.25000000  0.75000000  0.83333333
  0.25000000  0.75000000  0.91666667
  0.25000000  0.87500000  0.00000000
  0.25000000  0.87500000  0.08333333
  0.25000000  0.87500000  0.16666667
  0.25000000  0.87500000  0.25000000
  0.25000000  0.87500000  0.33333333
  0.25000000  0.87500000  0.41666667
  0.25000000  0.87500000  0.50000000
  0.25000000  0.87500000  0.58333333
  0.25000000  0.87500000  0.66666667
  0.25000000  0.87500000  0.75000000
  0.25000000  0.87500000  0.83333333
  0.25000000  0.87500000  0.91666667
  0.37500000  0.00000000  0.00000000
  0.37500000  0.00000000  0.08333333
  0.37500000  0.00000000  0.16666667
  0.37500000  0.00000000  0.25000000
  0.37500000  0.00000000  0.33333333
  0.37500000  0.00000000  0.41666667
  0.37500000  0.00000000  0.50000000
  0.37500000  0.00000000  0.58333333
  0.37500000  0.00000000  0.66666667
  0.37500000  0.00000000  0.75000000
  0.37500000  0.00000000  0.83333333
  0.37500000  0.00000000  0.91666667
  0.37500000  0.12500000  0.00000000
  0.37500000  0.12500000  0.08333333
  0.37500000  0.12500000  0.16666667
  0.37500000  0.12500000  0.25000000
  0.37500000  0.12500000  0.33333333
  0.37500000  0.12500000  0.41666667
  0.37500000  0.12500000  0.50000000
  0.37500000  0.12500000  0.58333333
  0.37500000  0.12500000  0.66666667
  0.37500000  0.12500000  0.75000000
  0.37500000  0.12500000  0.83333333
  0.37500000  0.12500000  0.91666667
  0.37500000  0.25000000  0.00000000
  0.37500000  0.25000000  0.08333333
  0.37500000  0.25000000  0.16666667
  0.37500000  0.25000000  0.25000000
  0.37500000  0.25000000  0.33333333
  0.37500000  0.25000000  0.41666667
  0.37500000  0.25000000  0.50000000
  0.37500000  0.25000000  0.58333333
  0.37500000  0.25000000  0.66666667
  0.37500000  0.25000000  0.75000000
  0.37500000  0.25000000  0.83333333
  0.37500000  0.25000000  0.91666667
  0.37500000  0.37500000  0.00000000
  0.37500000  0.37500000  0.08333333
  0.37500000  0.37500000  0.16666667
  0.37500000  0.37500000  0.25000000
  0.37500000  0.37500000  0.33333333
  0.37500000  0.37500000  0.41666667
  0.37500000  0.37500000  0.50000000
  0.37500000  0.37500000  0.58333333
  0.37500000  0.37500000  0.66666667
  0.37500000  0.37500000  0.75000000
  0.37500000  0.37500000  0.83333333
  0.37500000  0.37500000  0.91666667
  0.37500000  0.50000000  0.00000000
  0.37500000  0.50000000  0.08333333
  0.37500000  0.50000000  0.16666667
  0.37500000  0.50000000  0.25000000
  0.37500000  0.50000000  0.33333333
  0.37500000  0.50000000  0.41666667
  0.37500000  0.50000000  0.50000000
  0.37500000  0.50000000  0.58333333
  0.37500000  0.50000000  0.66666667
  0.37500000  0.50000000  0.75000000
  0.37500000  0.50000000  0.83333333
  0.37500000  0.50000000  0.91666667
  0.37500000  0.62500000  0.00000000
  0.37500000  0.62500000  0.08333333
  0.37500000  0.62500000  0.16666667
  0.37500000  0.62500000  0.25000000
  0.37500000  0.62500000  0.33333333
  0.37500000  0.62500000  0.41666667
  0.37500000  0.62500000  0.50000000
  0.37500000  0.62500000  0.58333333
  0.37500000  0.62500000  0.66666667
  0.37500000  0.62500000  0.75000000
  0.37500000  0.62500000  0.83333333
  0.37500000  0.62500000  0.91666667
  0.37500000  0.75000000  0.00000000
  0.37500000  0.75000000  0.08333333
  0.37500000  0.75000000  0.16666667
  0.37500000  0.75000000  0.25000000
  0.37500000  0.75000000  0.33333333
  0.37500000  0.75000000  0.41666667
  0.37500000  0.75000000  0.50000000
  0.37500000  0.75000000  0.58333333
  0.37500000  0.75000000  0.66666667
  0.37500000  0.75000000  0.75000000
  0.37500000  0.75000000  0.83333333
  0.37500000  0.75000000  0.91666667
  0.37500000  0.87500000  0.00000000
  0.37500000  0.87500000  0.08333333
  0.37500000  0.87500000  0.16666667
  0.37500000  0.87500000  0.25000000
  0.37500000  0.87500000  0.33333333
  0.37500000  0.87500000  0.41666667
  0.37500000  0.87500000  0.50000000
  0.37500000  0.87500000  0.58333333
  0.37500000  0.87500000  0.66666667
  0.37500000  0.87500000  0.75000000
  0.37500000  0.87500000  0.83333333
  0.37500000  0.87500000  0.91666667
  0.50000000  0.00000000  0.00000000
  0.50000000  0.00000000  0.08333333
  0.50000000  0.00000000  0.16666667
  0.50000000  0.00000000  0.25000000
  0.50000000  0.00000000  0.33333333
  0.50000000  0.00000000  0.41666667
  0.50000000  0.00000000  0.50000000
  0.50000000  0.00000000  0.58333333
  0.50000000  0.00000000  0.66666667
  0.50000000  0.00000000  0.75000000
  0.50000000  0.00000000  0.83333333
  0.50000000  0.00000000  0.91666667
  0.50000000  0.12500000  0.00000000
  0.50000000  0.12500000  0.08333333
  0.50000000  0.12500000  0.16666667
  0.50000000  0.12500000  0.25000000
  0.50000000  0.12500000  0.33333333
  0.50000000  0.12500000  0.41666667
  0.50000000  0.12500000  0.50000000
  0.50000000  0.12500000  0.58333333
  0.50000000  0.12500000  0.66666667
  0.50000000  0.12500000  0.75000000
  0.50000000  0.12500000  0.83333333
  0.50000000  0.12500000  0.91666667
  0.50000000  0.25000000  0.00000000
  0.50000000  0.25000000  0.08333333
  0.50000000  0.25000000  0.16666667
  0.50000000  0.25000000  0.25000000
  0.50000000  0.25000000  0.33333333
  0.50000000  0.25000000  0.41666667
  0.50000000  0.25000000  0.50000000
  0.50000000  0.25000000  0.58333333
  0.50000000  0.25000000  0.66666667
  0.50000000  0.25000000  0.75000000
  0.50000000  0.25000000  0.83333333
  0.50000000  0.25000000  0.91666667
  0.50000000  0.37500000  0.00000000
  0.50000000  0.37500000  0.08333333
  0.50000000  0.37500000  0.16666667
  0.50000000  0.37500000  0.25000000
  0.50000000  0.37500000  0.33333333
  0.50000000  0.37500000  0.41666667
  0.50000000  0.37500000  0.50000000
  0.50000000  0.37500000  0.58333333
  0.50000000  0.37500000  0.66666667
  0.50000000  0.37500000  0.75000000
  0.50000000  0.37500000  0.83333333
  0.50000000  0.37500000  0.91666667
  0.50000000  0.50000000  0.00000000
  0.50000000  0.50000000  0.08333333
  0.50000000  0.50000000  0.16666667
  0.50000000  0.50000000  0.25000000
  0.50000000  0.50000000  0.33333333
  0.50000000  0.50000000  0.41666667
  0.50000000  0.50000000  0.50000000
  0.50000000  0.50000000  0.58333333
  0.50000000  0.50000000  0.66666667
  0.50000000  0.50000000  0.75000000
  0.50000000  0.50000000  0.83333333
  0.50000000  0.50000000  0.91666667
  0.50000000  0.62500000  0.00000000
  0.50000000  0.62500000  0.08333333
  0.50000000  0.62500000  0.16666667
  0.50000000  0.62500000  0.25000000
  0.50000000  0.62500000  0.33333333
  0.50000000  0.62500000  0.41666667
  0.50000000  0.62500000  0.50000000
  0.50000000  0.62500000  0.58333333
  0.50000000  0.62500000  0.66666667
  0.50000000  0.62500000  0.75000000
  0.50000000  0.62500000  0.83333333
  0.50000000  0.62500000  0.91666667
  0.50000000  0.75000000  0.00000000
  0.50000000  0.75000000  0.08333333
  0.50000000  0.75000000  0.16666667
  0.50000000  0.75000000  0.25000000
  0.50000000  0.75000000  0.33333333
  0.50000000  0.75000000  0.41666667
  0.50000000  0.75000000  0.50000000
  0.50000000  0.75000000  0.58333333
  0.50000000  0.75000000  0.66666667
  0.50000000  0.75000000  0.75000000
  0.50000000  0.75000000  0.83333333
  0.50000000  0.75000000  0.91666667
  0.50000000  0.87500000  0.00000000
  0.50000000  0.87500000  0.08333333
  0.50000000  0.87500000  0.16666667
  0.50000000  0.87500000  0.25000000
  0.50000000  0.87500000  0.33333333
  0.50000000  0.87500000  0.41666667
  0.50000000  0.87500000  0.50000000
  0.50000000  0.87500000  0.58333333
  0.50000000  0.87500000  0.66666667
  0.50000000  0.87500000  0.75000000
  0.50000000  0.87500000  0.83333333
  0.50000000  0.87500000  0.91666667
  0.62500000  0.00000000  0.00000000
  0.62500000  0.00000000  0.08333333
  0.62500000  0.00000000  0.16666667
  0.62500000  0.00000000  0.25000000
  0.62500000  0.00000000  0.33333333
  0.62500000  0.00000000  0.41666667
  0.62500000  0.00000000  0.50000000
  0.62500000  0.00000000  0.58333333
  0.62500000  0.00000000  0.66666667
  0.62500000  0.00000000  0.75000000
  0.62500000  0.00000000  0.83333333
  0.62500000  0.00000000  0.91666667
  0.62500000  0.12500000  0.00000000
  0.62500000  0.12500000  0.08333333
  0.62500000  0.12500000  0.16666667
  0.62500000  0.12500000  0.25000000
  0.62500000  0.12500000  0.33333333
  0.62500000  0.12500000  0.41666667
  0.62500000  0.12500000  0.50000000
  0.62500000  0.12500000  0.58333333
  0.62500000  0.12500000  0.66666667
  0.62500000  0.12500000  0.75000000
  0.62500000  0.12500000  0.83333333
  0.62500000  0.12500000  0.91666667
  0.62500000  0.25000000  0.00000000
  0.62500000  0.25000000  0.08333333
  0.62500000  0.25000000  0.16666667
  0.62500000  0.25000000  0.25000000
  0.62500000  0.25000000  0.33333333
  0.62500000  0.25000000  0.41666667
  0.62500000  0.25000000  0.50000000
  0.62500000  0.25000000  0.58333333
  0.62500000  0.25000000  0.66666667
  0.62500000  0.25000000  0.75000000
  0.62500000  0.25000000  0.83333333
  0.62500000  0.25000000  0.91666667
  0.62500000  0.37500000  0.00000000
  0.62500000  0.37500000  0.08333333
  0.62500000  0.37500000  0.16666667
  0.62500000  0.37500000  0.25000000
  0.62500000  0.37500000  0.33333333
  0.62500000  0.37500000  0.41666667
  0.62500000  0.37500000  0.50000000
  0.62500000  0.37500000  0.58333333
  0.62500000  0.37500000  0.66666667
  0.62500000  0.37500000  0.75000000
  0.62500000  0.37500000  0.83333333
  0.62500000  0.37500000  0.91666667
  0.62500000  0.50000000  0.00000000
  0.62500000  0.50000000  0.08333333
  0.62500000  0.50000000  0.16666667
  0.62500000  0.50000000  0.25000000
  0.62500000  0.50000000  0.33333333
  0.62500000  0.50000000  0.41666667
  0.62500000  0.50000000  0.50000000
  0.62500000  0.50000000  0.58333333
  0.62500000  0.50000000  0.66666667
  0.62500000  0.50000000  0.75000000
  0.62500000  0.50000000  0.83333333
  0.62500000  0.50000000  0.91666667
  0.62500000  0.62500000  0.00000000
  0.62500000  0.62500000  0.08333333
  0.62500000  0.62500000  0.16666667
  0.62500000  0.62500000  0.25000000
  0.62500000  0.62500000  0.33333333
  0.62500000  0.62500000  0.41666667
  0.62500000  0.62500000  0.50000000
  0.62500000  0.62500000  0.58333333
  0.62500000  0.62500000  0.66666667
  0.62500000  0.62500000  0.75000000
  0.62500000  0.62500000  0.83333333
  0.62500000  0.62500000  0.91666667
  0.62500000  0.75000000  0.00000000
  0.62500000  0.75000000  0.08333333
  0.62500000  0.75000000  0.16666667
  0.62500000  0.75000000  0.25000000
  0.62500000  0.75000000  0.33333333
  0.62500000  0.75000000  0.41666667
  0.62500000  0.75000000  0.50000000
  0.62500000  0.75000000  0.58333333
  0.62500000  0.75000000  0.66666667
  0.62500000  0.75000000  0.75000000
  0.62500000  0.75000000  0.83333333
  0.62500000  0.75000000  0.91666667
  0.62500000  0.87500000  0.00000000
  0.62500000  0.87500000  0.08333333
  0.62500000  0.87500000  0.16666667
  0.62500000  0.87500000  0.25000000
  0.62500000  0.87500000  0.33333333
  0.62500000  0.87500000  0.41666667
  0.62500000  0.87500000  0.50000000
  0.62500000  0.87500000  0.58333333
  0.62500000  0.87500000  0.66666667
  0.62500000  0.87500000  0.75000000
  0.62500000  0.87500000  0.83333333
  0.62500000  0.87500000  0.91666667
  0.75000000  0.00000000  0.00000000
  0.75000000  0.00000000  0.08333333
  0.75000000  0.00000000  0.16666667
  0.75000000  0.00000000  0.25000000
  0.75000000  0.00000000  0.33333333
  0.75000000  0.00000000  0.41666667
  0.75000000  0.00000000  0.50000000
  0.75000000  0.00000000  0.58333333
  0.75000000  0.00000000  0.66666667
  0.75000000  0.00000000  0.75000000
  0.75000000  0.00000000  0.83333333
  0.75000000  0.00000000  0.91666667
  0.75000000  0.12500000  0.00000000
  0.75000000  0.12500000  0.08333333
  0.75000000  0.12500000  0.16666667
  0.75000000  0.12500000  0.25000000
  0.75000000  0.12500000  0.33333333
  0.75000000  0.12500000  0.41666667
  0.75000000  0.12500000  0.50000000
  0.75000000  0.12500000  0.58333333
  0.75000000  0.12500000  0.66666667
  0.75000000  0.12500000  0.75000000
  0.75000000  0.12500000  0.83333333
  0.75000000  0.12500000  0.91666667
  0.75000000  0.25000000  0.00000000
  0.75000000  0.25000000  0.08333333
  0.75000000  0.25000000  0.16666667
  0.75000000  0.25000000  0.25000000
  0.75000000  0.25000000  0.33333333
  0.75000000  0.25000000  0.41666667
  0.75000000  0.25000000  0.50000000
  0.75000000  0.25000000  0.58333333
  0.75000000  0.25000000  0.66666667
  0.75000000  0.25000000  0.75000000
  0.75000000  0.25000000  0.83333333
  0.75000000  0.25000000  0.91666667
  0.75000000  0.37500000  0.00000000
  0.75000000  0.37500000  0.08333333
  0.75000000  0.37500000  0.16666667
  0.75000000  0.37500000  0.25000000
  0.75000000  0.37500000  0.33333333
  0.75000000  0.37500000  0.41666667
  0.75000000  0.37500000  0.50000000
  0.75000000  0.37500000  0.58333333
  0.75000000  0.37500000  0.66666667
  0.75000000  0.37500000  0.75000000
  0.75000000  0.37500000  0.83333333
  0.75000000  0.37500000  0.91666667
  0.75000000  0.50000000  0.00000000
  0.75000000  0.50000000  0.08333333
  0.75000000  0.50000000  0.16666667
  0.75000000  0.50000000  0.25000000
  0.75000000  0.50000000  0.33333333
  0.75000000  0.50000000  0.41666667
  0.75000000  0.50000000  0.50000000
  0.75000000  0.50000000  0.58333333
  0.75000000  0.50000000  0.66666667
  0.75000000  0.50000000  0.75000000
  0.75000000  0.50000000  0.83333333
  0.75000000  0.50000000  0.91666667
  0.75000000  0.62500000  0.00000000
  0.75000000  0.62500000  0.08333333
  0.75000000  0.62500000  0.16666667
  0.75000000  0.62500000  0.25000000
  0.75000000  0.62500000  0.33333333
  0.75000000  0.62500000  0.41666667
  0.75000000  0.62500000  0.50000000
  0.75000000  0.62500000  0.58333333
  0.75000000  0.62500000  0.66666667
  0.75000000  0.62500000  0.75000000
  0.75000000  0.62500000  0.83333333
  0.75000000  0.62500000  0.91666667
  0.75000000  0.75000000  0.00000000
  0.75000000  0.75000000  0.08333333
  0.75000000  0.75000000  0.16666667
  0.75000000  0.75000000  0.25000000
  0.75000000  0.75000000  0.33333333
  0.75000000  0.75000000  0.41666667
  0.75000000  0.75000000  0.50000000
  0.75000000  0.75000000  0.58333333
  0.75000000  0.75000000  0.66666667
  0.75000000  0.75000000  0.75000000
  0.75000000  0.75000000  0.83333333
  0.75000000  0.75000000  0.91666667
  0.75000000  0.87500000  0.00000000
  0.75000000  0.87500000  0.08333333
  0.75000000  0.87500000  0.16666667
  0.75000000  0.87500000  0.25000000
  0.75000000  0.87500000  0.33333333
  0.75000000  0.87500000  0.41666667
  0.75000000  0.87500000  0.50000000
  0.75000000  0.87500000  0.58333333
  0.75000000  0.87500000  0.66666667
  0.75000000  0.87500000  0.75000000
  0.75000000  0.87500000  0.83333333
  0.75000000  0.87500000  0.91666667
  0.87500000  0.00000000  0.00000000
  0.87500000  0.00000000  0.08333333
  0.87500000  0.00000000  0.16666667
  0.87500000  0.00000000  0.25000000
  0.87500000  0.00000000  0.33333333
  0.87500000  0.00000000  0.41666667
  0.87500000  0.00000000  0.50000000
  0.87500000  0.00000000  0.58333333
  0.87500000  0.00000000  0.66666667
  0.87500000  0.00000000  0.75000000
  0.87500000  0.00000000  0.83333333
  0.87500000  0.00000000  0.91666667
  0.87500000  0.12500000  0.00000000
  0.87500000  0.12500000  0.08333333
  0.87500000  0.12500000  0.16666667
  0.87500000  0.12500000  0.25000000
  0.87500000  0.12500000  0.33333333
  0.87500000  0.12500000  0.41666667
  0.87500000  0.12500000  0.50000000
  0.87500000  0.12500000  0.58333333
  0.87500000  0.12500000  0.66666667
  0.87500000  0.12500000  0.75000000
  0.87500000  0.12500000  0.83333333
  0.87500000  0.12500000  0.91666667
  0.87500000  0.25000000  0.00000000
  0.87500000  0.25000000  0.08333333
  0.87500000  0.25000000  0.16666667
  0.87500000  0.25000000  0.25000000
  0.87500000  0.25000000  0.33333333
  0.87500000  0.25000000  0.41666667
  0.87500000  0.25000000  0.50000000
  0.87500000  0.25000000  0.58333333
  0.87500000  0.25000000  0.66666667
  0.87500000  0.25000000  0.75000000
  0.87500000  0.25000000  0.83333333
  0.87500000  0.25000000  0.91666667
  0.87500000  0.37500000  0.00000000
  0.87500000  0.37500000  0.08333333
  0.87500000  0.37500000  0.16666667
  0.87500000  0.37500000  0.25000000
  0.87500000  0.37500000  0.33333333
  0.87500000  0.37500000  0.41666667
  0.87500000  0.37500000  0.50000000
  0.87500000  0.37500000  0.58333333
  0.87500000  0.37500000  0.66666667
  0.87500000  0.37500000  0.75000000
  0.87500000  0.37500000  0.83333333
  0.87500000  0.37500000  0.91666667
  0.87500000  0.50000000  0.00000000
  0.87500000  0.50000000  0.08333333
  0.87500000  0.50000000  0.16666667
  0.87500000  0.50000000  0.25000000
  0.87500000  0.50000000  0.33333333
  0.87500000  0.50000000  0.41666667
  0.87500000  0.50000000  0.50000000
  0.87500000  0.50000000  0.58333333
  0.87500000  0.50000000  0.66666667
  0.87500000  0.50000000  0.75000000
  0.87500000  0.50000000  0.83333333
  0.87500000  0.50000000  0.91666667
  0.87500000  0.62500000  0.00000000
  0.87500000  0.62500000  0.08333333
  0.87500000  0.62500000  0.16666667
  0.87500000  0.62500000  0.25000000
  0.87500000  0.62500000  0.33333333
  0.87500000  0.62500000  0.41666667
  0.87500000  0.62500000  0.50000000
  0.87500000  0.62500000  0.58333333
  0.87500000  0.62500000  0.66666667
  0.87500000  0.62500000  0.75000000
  0.87500000  0.62500000  0.83333333
  0.87500000  0.62500000  0.91666667
  0.87500000  0.75000000  0.00000000
  0.87500000  0.75000000  0.08333333
  0.87500000  0.75000000  0.16666667
  0.87500000  0.75000000  0.25000000
  0.87500000  0.75000000  0.33333333
  0.87500000  0.75000000  0.41666667
  0.87500000  0.75000000  0.50000000
  0.87500000  0.75000000  0.58333333
  0.87500000  0.75000000  0.66666667
  0.87500000  0.75000000  0.75000000
  0.87500000  0.75000000  0.83333333
  0.87500000  0.75000000  0.91666667
  0.87500000  0.87500000  0.00000000
  0.87500000  0.87500000  0.08333333
  0.87500000  0.87500000  0.16666667
  0.87500000  0.87500000  0.25000000
  0.87500000  0.87500000  0.33333333
  0.87500000  0.87500000  0.41666667
  0.87500000  0.87500000  0.50000000
  0.87500000  0.87500000  0.58333333
  0.87500000  0.87500000  0.66666667
  0.87500000  0.87500000  0.75000000
  0.87500000  0.87500000  0.83333333
  0.87500000  0.87500000  0.91666667
end kpoints

