&inputpp
    prefix = 'mp-1087'
    outdir='out/',
    plot_num=10,
    emin = 8.176691603923972,
    emax = 9.376691603923971,
    delta_e = 0.1,
/
&plot
    iflag=3,
    output_format=6,
    fileout='ldos.cube',
/
