&CONTROL
  calculation = 'nscf',
  disk_io = 'nowf',
  outdir = 'out/',
  prefix = 'mp-1342',
  pseudo_dir = '/usr/scratch4/magr4985/MG/devEb/pseudo/SG15',
/
&SYSTEM
  celldm(1) = 10.546151463583284,
  degauss = 0.0004593661607577953,
  ecutwfc = 140,
  ibrav = 2,
  nbnd = 16,
  occupations = 'smearing',
  smearing = 'gaussian',
  nat = 2,
  ntyp = 2,
/
&ELECTRONS
  conv_thr = 1d-10,
  diago_full_acc = .TRUE.,
  diago_thr_init = 5d-06,
  diagonalization = 'paro',
/
&IONS
/
&CELL
/
ATOMIC_SPECIES
  Ba  137.3270 Ba.upf
  O  15.9994 O.upf
ATOMIC_POSITIONS crystal
  Ba 0.00000000 0.00000000 0.00000000
  O 0.49999996 0.50000004 0.49999996
K_POINTS tpiba
7
0.0 -0.9999999999996884 0.0 1
0.01 -0.9999999999996884 0.0 1
-0.01 -0.9999999999996884 0.0 1 
0.0 -0.9899999999996884 0.0 1
0.0 -1.0099999999996883 0.0 1 
0.0 -0.9999999999996884 0.01 1
0.0 -0.9999999999996884 -0.01 1 


