K1 F1
1.0
  -2.6544132011137780    0.0000000000000000    2.6544132011137780
   0.0000000000000000    2.6544132011137780    2.6544132011137780
  -2.6544132011137780    2.6544132011137780    0.0000000000000000
K F
1 1
direct
   0.0000000000000000    0.0000000000000000    0.0000000000000000 K
   0.4999999615946625    0.5000000384053375    0.4999999615946625 F
