In2 I2
1.0
   2.4301216776991907    6.4326315541331809    0.0000000000000000
  -2.4301216776991907    6.4326315541331809    0.0000000000000000
   0.0000000000000000    0.0000000000000000    4.8336359887251552
In I
2 2
direct
   0.6032668563373310    0.6032667795266556    0.7500000576080067 In
   0.3967332204733445    0.3967332204733441    0.2500000192026689 In
   0.8539038255889245    0.8539037487782489    0.7500000576080067 I
   0.1460962512217510    0.1460962512217509    0.2500000192026689 I
