K1 Rb1 Br2
1.0
  -4.1181002775271862    0.0000000000000000    4.1181002775271862
   0.0000000000000000    4.1181002775271862    4.1181002775271862
  -4.1181002775271862    4.1181002775271862    0.0000000000000000
K Rb Br
1 1 2
direct
   0.0000000000000000    0.0000000000000000    0.0000000000000000 K
   0.4999999615946624    0.5000000384053376    0.4999999615946624 Rb
   0.7499999807973313    0.7500001344186815    0.7499999807973312 Br
   0.2500000192026689    0.2500000960133439    0.2499999423919935 Br
