&inputpp
    prefix = 'mp-22903'
    outdir='out/',
    plot_num=10,
    emin = 6.313907590732844,
    emax = 7.313907590732844,
    delta_e = 0.1,
/
&plot
    iflag=3,
    output_format=6,
    fileout='ldos.cube',
/
