num_wann = 6
exclude_bands = 1-10 17-32
num_iter = 500

auto_projections =.true.

begin atoms_frac
K 0.0 0.0 0.0
Rb 0.4999999615946624 0.5000000384053376 0.4999999615946624
Br 0.7499999807973313 0.7500001344186815 0.7499999807973312
Br 0.2500000192026689 0.25000009601334394 0.24999994239199352
end atoms_frac

geninterp = true
geninterp_alsofirstder = true

begin unit_cell_cart
-4.118100 0.000000 4.118100
0.000000 4.118100 4.118100
-4.118100 4.118100 0.000000
end unit_cell_cart

mp_grid : 10 10 10

begin kpoints
  0.00000000  0.00000000  0.00000000
  0.00000000  0.00000000  0.10000000
  0.00000000  0.00000000  0.20000000
  0.00000000  0.00000000  0.30000000
  0.00000000  0.00000000  0.40000000
  0.00000000  0.00000000  0.50000000
  0.00000000  0.00000000  0.60000000
  0.00000000  0.00000000  0.70000000
  0.00000000  0.00000000  0.80000000
  0.00000000  0.00000000  0.90000000
  0.00000000  0.10000000  0.00000000
  0.00000000  0.10000000  0.10000000
  0.00000000  0.10000000  0.20000000
  0.00000000  0.10000000  0.30000000
  0.00000000  0.10000000  0.40000000
  0.00000000  0.10000000  0.50000000
  0.00000000  0.10000000  0.60000000
  0.00000000  0.10000000  0.70000000
  0.00000000  0.10000000  0.80000000
  0.00000000  0.10000000  0.90000000
  0.00000000  0.20000000  0.00000000
  0.00000000  0.20000000  0.10000000
  0.00000000  0.20000000  0.20000000
  0.00000000  0.20000000  0.30000000
  0.00000000  0.20000000  0.40000000
  0.00000000  0.20000000  0.50000000
  0.00000000  0.20000000  0.60000000
  0.00000000  0.20000000  0.70000000
  0.00000000  0.20000000  0.80000000
  0.00000000  0.20000000  0.90000000
  0.00000000  0.30000000  0.00000000
  0.00000000  0.30000000  0.10000000
  0.00000000  0.30000000  0.20000000
  0.00000000  0.30000000  0.30000000
  0.00000000  0.30000000  0.40000000
  0.00000000  0.30000000  0.50000000
  0.00000000  0.30000000  0.60000000
  0.00000000  0.30000000  0.70000000
  0.00000000  0.30000000  0.80000000
  0.00000000  0.30000000  0.90000000
  0.00000000  0.40000000  0.00000000
  0.00000000  0.40000000  0.10000000
  0.00000000  0.40000000  0.20000000
  0.00000000  0.40000000  0.30000000
  0.00000000  0.40000000  0.40000000
  0.00000000  0.40000000  0.50000000
  0.00000000  0.40000000  0.60000000
  0.00000000  0.40000000  0.70000000
  0.00000000  0.40000000  0.80000000
  0.00000000  0.40000000  0.90000000
  0.00000000  0.50000000  0.00000000
  0.00000000  0.50000000  0.10000000
  0.00000000  0.50000000  0.20000000
  0.00000000  0.50000000  0.30000000
  0.00000000  0.50000000  0.40000000
  0.00000000  0.50000000  0.50000000
  0.00000000  0.50000000  0.60000000
  0.00000000  0.50000000  0.70000000
  0.00000000  0.50000000  0.80000000
  0.00000000  0.50000000  0.90000000
  0.00000000  0.60000000  0.00000000
  0.00000000  0.60000000  0.10000000
  0.00000000  0.60000000  0.20000000
  0.00000000  0.60000000  0.30000000
  0.00000000  0.60000000  0.40000000
  0.00000000  0.60000000  0.50000000
  0.00000000  0.60000000  0.60000000
  0.00000000  0.60000000  0.70000000
  0.00000000  0.60000000  0.80000000
  0.00000000  0.60000000  0.90000000
  0.00000000  0.70000000  0.00000000
  0.00000000  0.70000000  0.10000000
  0.00000000  0.70000000  0.20000000
  0.00000000  0.70000000  0.30000000
  0.00000000  0.70000000  0.40000000
  0.00000000  0.70000000  0.50000000
  0.00000000  0.70000000  0.60000000
  0.00000000  0.70000000  0.70000000
  0.00000000  0.70000000  0.80000000
  0.00000000  0.70000000  0.90000000
  0.00000000  0.80000000  0.00000000
  0.00000000  0.80000000  0.10000000
  0.00000000  0.80000000  0.20000000
  0.00000000  0.80000000  0.30000000
  0.00000000  0.80000000  0.40000000
  0.00000000  0.80000000  0.50000000
  0.00000000  0.80000000  0.60000000
  0.00000000  0.80000000  0.70000000
  0.00000000  0.80000000  0.80000000
  0.00000000  0.80000000  0.90000000
  0.00000000  0.90000000  0.00000000
  0.00000000  0.90000000  0.10000000
  0.00000000  0.90000000  0.20000000
  0.00000000  0.90000000  0.30000000
  0.00000000  0.90000000  0.40000000
  0.00000000  0.90000000  0.50000000
  0.00000000  0.90000000  0.60000000
  0.00000000  0.90000000  0.70000000
  0.00000000  0.90000000  0.80000000
  0.00000000  0.90000000  0.90000000
  0.10000000  0.00000000  0.00000000
  0.10000000  0.00000000  0.10000000
  0.10000000  0.00000000  0.20000000
  0.10000000  0.00000000  0.30000000
  0.10000000  0.00000000  0.40000000
  0.10000000  0.00000000  0.50000000
  0.10000000  0.00000000  0.60000000
  0.10000000  0.00000000  0.70000000
  0.10000000  0.00000000  0.80000000
  0.10000000  0.00000000  0.90000000
  0.10000000  0.10000000  0.00000000
  0.10000000  0.10000000  0.10000000
  0.10000000  0.10000000  0.20000000
  0.10000000  0.10000000  0.30000000
  0.10000000  0.10000000  0.40000000
  0.10000000  0.10000000  0.50000000
  0.10000000  0.10000000  0.60000000
  0.10000000  0.10000000  0.70000000
  0.10000000  0.10000000  0.80000000
  0.10000000  0.10000000  0.90000000
  0.10000000  0.20000000  0.00000000
  0.10000000  0.20000000  0.10000000
  0.10000000  0.20000000  0.20000000
  0.10000000  0.20000000  0.30000000
  0.10000000  0.20000000  0.40000000
  0.10000000  0.20000000  0.50000000
  0.10000000  0.20000000  0.60000000
  0.10000000  0.20000000  0.70000000
  0.10000000  0.20000000  0.80000000
  0.10000000  0.20000000  0.90000000
  0.10000000  0.30000000  0.00000000
  0.10000000  0.30000000  0.10000000
  0.10000000  0.30000000  0.20000000
  0.10000000  0.30000000  0.30000000
  0.10000000  0.30000000  0.40000000
  0.10000000  0.30000000  0.50000000
  0.10000000  0.30000000  0.60000000
  0.10000000  0.30000000  0.70000000
  0.10000000  0.30000000  0.80000000
  0.10000000  0.30000000  0.90000000
  0.10000000  0.40000000  0.00000000
  0.10000000  0.40000000  0.10000000
  0.10000000  0.40000000  0.20000000
  0.10000000  0.40000000  0.30000000
  0.10000000  0.40000000  0.40000000
  0.10000000  0.40000000  0.50000000
  0.10000000  0.40000000  0.60000000
  0.10000000  0.40000000  0.70000000
  0.10000000  0.40000000  0.80000000
  0.10000000  0.40000000  0.90000000
  0.10000000  0.50000000  0.00000000
  0.10000000  0.50000000  0.10000000
  0.10000000  0.50000000  0.20000000
  0.10000000  0.50000000  0.30000000
  0.10000000  0.50000000  0.40000000
  0.10000000  0.50000000  0.50000000
  0.10000000  0.50000000  0.60000000
  0.10000000  0.50000000  0.70000000
  0.10000000  0.50000000  0.80000000
  0.10000000  0.50000000  0.90000000
  0.10000000  0.60000000  0.00000000
  0.10000000  0.60000000  0.10000000
  0.10000000  0.60000000  0.20000000
  0.10000000  0.60000000  0.30000000
  0.10000000  0.60000000  0.40000000
  0.10000000  0.60000000  0.50000000
  0.10000000  0.60000000  0.60000000
  0.10000000  0.60000000  0.70000000
  0.10000000  0.60000000  0.80000000
  0.10000000  0.60000000  0.90000000
  0.10000000  0.70000000  0.00000000
  0.10000000  0.70000000  0.10000000
  0.10000000  0.70000000  0.20000000
  0.10000000  0.70000000  0.30000000
  0.10000000  0.70000000  0.40000000
  0.10000000  0.70000000  0.50000000
  0.10000000  0.70000000  0.60000000
  0.10000000  0.70000000  0.70000000
  0.10000000  0.70000000  0.80000000
  0.10000000  0.70000000  0.90000000
  0.10000000  0.80000000  0.00000000
  0.10000000  0.80000000  0.10000000
  0.10000000  0.80000000  0.20000000
  0.10000000  0.80000000  0.30000000
  0.10000000  0.80000000  0.40000000
  0.10000000  0.80000000  0.50000000
  0.10000000  0.80000000  0.60000000
  0.10000000  0.80000000  0.70000000
  0.10000000  0.80000000  0.80000000
  0.10000000  0.80000000  0.90000000
  0.10000000  0.90000000  0.00000000
  0.10000000  0.90000000  0.10000000
  0.10000000  0.90000000  0.20000000
  0.10000000  0.90000000  0.30000000
  0.10000000  0.90000000  0.40000000
  0.10000000  0.90000000  0.50000000
  0.10000000  0.90000000  0.60000000
  0.10000000  0.90000000  0.70000000
  0.10000000  0.90000000  0.80000000
  0.10000000  0.90000000  0.90000000
  0.20000000  0.00000000  0.00000000
  0.20000000  0.00000000  0.10000000
  0.20000000  0.00000000  0.20000000
  0.20000000  0.00000000  0.30000000
  0.20000000  0.00000000  0.40000000
  0.20000000  0.00000000  0.50000000
  0.20000000  0.00000000  0.60000000
  0.20000000  0.00000000  0.70000000
  0.20000000  0.00000000  0.80000000
  0.20000000  0.00000000  0.90000000
  0.20000000  0.10000000  0.00000000
  0.20000000  0.10000000  0.10000000
  0.20000000  0.10000000  0.20000000
  0.20000000  0.10000000  0.30000000
  0.20000000  0.10000000  0.40000000
  0.20000000  0.10000000  0.50000000
  0.20000000  0.10000000  0.60000000
  0.20000000  0.10000000  0.70000000
  0.20000000  0.10000000  0.80000000
  0.20000000  0.10000000  0.90000000
  0.20000000  0.20000000  0.00000000
  0.20000000  0.20000000  0.10000000
  0.20000000  0.20000000  0.20000000
  0.20000000  0.20000000  0.30000000
  0.20000000  0.20000000  0.40000000
  0.20000000  0.20000000  0.50000000
  0.20000000  0.20000000  0.60000000
  0.20000000  0.20000000  0.70000000
  0.20000000  0.20000000  0.80000000
  0.20000000  0.20000000  0.90000000
  0.20000000  0.30000000  0.00000000
  0.20000000  0.30000000  0.10000000
  0.20000000  0.30000000  0.20000000
  0.20000000  0.30000000  0.30000000
  0.20000000  0.30000000  0.40000000
  0.20000000  0.30000000  0.50000000
  0.20000000  0.30000000  0.60000000
  0.20000000  0.30000000  0.70000000
  0.20000000  0.30000000  0.80000000
  0.20000000  0.30000000  0.90000000
  0.20000000  0.40000000  0.00000000
  0.20000000  0.40000000  0.10000000
  0.20000000  0.40000000  0.20000000
  0.20000000  0.40000000  0.30000000
  0.20000000  0.40000000  0.40000000
  0.20000000  0.40000000  0.50000000
  0.20000000  0.40000000  0.60000000
  0.20000000  0.40000000  0.70000000
  0.20000000  0.40000000  0.80000000
  0.20000000  0.40000000  0.90000000
  0.20000000  0.50000000  0.00000000
  0.20000000  0.50000000  0.10000000
  0.20000000  0.50000000  0.20000000
  0.20000000  0.50000000  0.30000000
  0.20000000  0.50000000  0.40000000
  0.20000000  0.50000000  0.50000000
  0.20000000  0.50000000  0.60000000
  0.20000000  0.50000000  0.70000000
  0.20000000  0.50000000  0.80000000
  0.20000000  0.50000000  0.90000000
  0.20000000  0.60000000  0.00000000
  0.20000000  0.60000000  0.10000000
  0.20000000  0.60000000  0.20000000
  0.20000000  0.60000000  0.30000000
  0.20000000  0.60000000  0.40000000
  0.20000000  0.60000000  0.50000000
  0.20000000  0.60000000  0.60000000
  0.20000000  0.60000000  0.70000000
  0.20000000  0.60000000  0.80000000
  0.20000000  0.60000000  0.90000000
  0.20000000  0.70000000  0.00000000
  0.20000000  0.70000000  0.10000000
  0.20000000  0.70000000  0.20000000
  0.20000000  0.70000000  0.30000000
  0.20000000  0.70000000  0.40000000
  0.20000000  0.70000000  0.50000000
  0.20000000  0.70000000  0.60000000
  0.20000000  0.70000000  0.70000000
  0.20000000  0.70000000  0.80000000
  0.20000000  0.70000000  0.90000000
  0.20000000  0.80000000  0.00000000
  0.20000000  0.80000000  0.10000000
  0.20000000  0.80000000  0.20000000
  0.20000000  0.80000000  0.30000000
  0.20000000  0.80000000  0.40000000
  0.20000000  0.80000000  0.50000000
  0.20000000  0.80000000  0.60000000
  0.20000000  0.80000000  0.70000000
  0.20000000  0.80000000  0.80000000
  0.20000000  0.80000000  0.90000000
  0.20000000  0.90000000  0.00000000
  0.20000000  0.90000000  0.10000000
  0.20000000  0.90000000  0.20000000
  0.20000000  0.90000000  0.30000000
  0.20000000  0.90000000  0.40000000
  0.20000000  0.90000000  0.50000000
  0.20000000  0.90000000  0.60000000
  0.20000000  0.90000000  0.70000000
  0.20000000  0.90000000  0.80000000
  0.20000000  0.90000000  0.90000000
  0.30000000  0.00000000  0.00000000
  0.30000000  0.00000000  0.10000000
  0.30000000  0.00000000  0.20000000
  0.30000000  0.00000000  0.30000000
  0.30000000  0.00000000  0.40000000
  0.30000000  0.00000000  0.50000000
  0.30000000  0.00000000  0.60000000
  0.30000000  0.00000000  0.70000000
  0.30000000  0.00000000  0.80000000
  0.30000000  0.00000000  0.90000000
  0.30000000  0.10000000  0.00000000
  0.30000000  0.10000000  0.10000000
  0.30000000  0.10000000  0.20000000
  0.30000000  0.10000000  0.30000000
  0.30000000  0.10000000  0.40000000
  0.30000000  0.10000000  0.50000000
  0.30000000  0.10000000  0.60000000
  0.30000000  0.10000000  0.70000000
  0.30000000  0.10000000  0.80000000
  0.30000000  0.10000000  0.90000000
  0.30000000  0.20000000  0.00000000
  0.30000000  0.20000000  0.10000000
  0.30000000  0.20000000  0.20000000
  0.30000000  0.20000000  0.30000000
  0.30000000  0.20000000  0.40000000
  0.30000000  0.20000000  0.50000000
  0.30000000  0.20000000  0.60000000
  0.30000000  0.20000000  0.70000000
  0.30000000  0.20000000  0.80000000
  0.30000000  0.20000000  0.90000000
  0.30000000  0.30000000  0.00000000
  0.30000000  0.30000000  0.10000000
  0.30000000  0.30000000  0.20000000
  0.30000000  0.30000000  0.30000000
  0.30000000  0.30000000  0.40000000
  0.30000000  0.30000000  0.50000000
  0.30000000  0.30000000  0.60000000
  0.30000000  0.30000000  0.70000000
  0.30000000  0.30000000  0.80000000
  0.30000000  0.30000000  0.90000000
  0.30000000  0.40000000  0.00000000
  0.30000000  0.40000000  0.10000000
  0.30000000  0.40000000  0.20000000
  0.30000000  0.40000000  0.30000000
  0.30000000  0.40000000  0.40000000
  0.30000000  0.40000000  0.50000000
  0.30000000  0.40000000  0.60000000
  0.30000000  0.40000000  0.70000000
  0.30000000  0.40000000  0.80000000
  0.30000000  0.40000000  0.90000000
  0.30000000  0.50000000  0.00000000
  0.30000000  0.50000000  0.10000000
  0.30000000  0.50000000  0.20000000
  0.30000000  0.50000000  0.30000000
  0.30000000  0.50000000  0.40000000
  0.30000000  0.50000000  0.50000000
  0.30000000  0.50000000  0.60000000
  0.30000000  0.50000000  0.70000000
  0.30000000  0.50000000  0.80000000
  0.30000000  0.50000000  0.90000000
  0.30000000  0.60000000  0.00000000
  0.30000000  0.60000000  0.10000000
  0.30000000  0.60000000  0.20000000
  0.30000000  0.60000000  0.30000000
  0.30000000  0.60000000  0.40000000
  0.30000000  0.60000000  0.50000000
  0.30000000  0.60000000  0.60000000
  0.30000000  0.60000000  0.70000000
  0.30000000  0.60000000  0.80000000
  0.30000000  0.60000000  0.90000000
  0.30000000  0.70000000  0.00000000
  0.30000000  0.70000000  0.10000000
  0.30000000  0.70000000  0.20000000
  0.30000000  0.70000000  0.30000000
  0.30000000  0.70000000  0.40000000
  0.30000000  0.70000000  0.50000000
  0.30000000  0.70000000  0.60000000
  0.30000000  0.70000000  0.70000000
  0.30000000  0.70000000  0.80000000
  0.30000000  0.70000000  0.90000000
  0.30000000  0.80000000  0.00000000
  0.30000000  0.80000000  0.10000000
  0.30000000  0.80000000  0.20000000
  0.30000000  0.80000000  0.30000000
  0.30000000  0.80000000  0.40000000
  0.30000000  0.80000000  0.50000000
  0.30000000  0.80000000  0.60000000
  0.30000000  0.80000000  0.70000000
  0.30000000  0.80000000  0.80000000
  0.30000000  0.80000000  0.90000000
  0.30000000  0.90000000  0.00000000
  0.30000000  0.90000000  0.10000000
  0.30000000  0.90000000  0.20000000
  0.30000000  0.90000000  0.30000000
  0.30000000  0.90000000  0.40000000
  0.30000000  0.90000000  0.50000000
  0.30000000  0.90000000  0.60000000
  0.30000000  0.90000000  0.70000000
  0.30000000  0.90000000  0.80000000
  0.30000000  0.90000000  0.90000000
  0.40000000  0.00000000  0.00000000
  0.40000000  0.00000000  0.10000000
  0.40000000  0.00000000  0.20000000
  0.40000000  0.00000000  0.30000000
  0.40000000  0.00000000  0.40000000
  0.40000000  0.00000000  0.50000000
  0.40000000  0.00000000  0.60000000
  0.40000000  0.00000000  0.70000000
  0.40000000  0.00000000  0.80000000
  0.40000000  0.00000000  0.90000000
  0.40000000  0.10000000  0.00000000
  0.40000000  0.10000000  0.10000000
  0.40000000  0.10000000  0.20000000
  0.40000000  0.10000000  0.30000000
  0.40000000  0.10000000  0.40000000
  0.40000000  0.10000000  0.50000000
  0.40000000  0.10000000  0.60000000
  0.40000000  0.10000000  0.70000000
  0.40000000  0.10000000  0.80000000
  0.40000000  0.10000000  0.90000000
  0.40000000  0.20000000  0.00000000
  0.40000000  0.20000000  0.10000000
  0.40000000  0.20000000  0.20000000
  0.40000000  0.20000000  0.30000000
  0.40000000  0.20000000  0.40000000
  0.40000000  0.20000000  0.50000000
  0.40000000  0.20000000  0.60000000
  0.40000000  0.20000000  0.70000000
  0.40000000  0.20000000  0.80000000
  0.40000000  0.20000000  0.90000000
  0.40000000  0.30000000  0.00000000
  0.40000000  0.30000000  0.10000000
  0.40000000  0.30000000  0.20000000
  0.40000000  0.30000000  0.30000000
  0.40000000  0.30000000  0.40000000
  0.40000000  0.30000000  0.50000000
  0.40000000  0.30000000  0.60000000
  0.40000000  0.30000000  0.70000000
  0.40000000  0.30000000  0.80000000
  0.40000000  0.30000000  0.90000000
  0.40000000  0.40000000  0.00000000
  0.40000000  0.40000000  0.10000000
  0.40000000  0.40000000  0.20000000
  0.40000000  0.40000000  0.30000000
  0.40000000  0.40000000  0.40000000
  0.40000000  0.40000000  0.50000000
  0.40000000  0.40000000  0.60000000
  0.40000000  0.40000000  0.70000000
  0.40000000  0.40000000  0.80000000
  0.40000000  0.40000000  0.90000000
  0.40000000  0.50000000  0.00000000
  0.40000000  0.50000000  0.10000000
  0.40000000  0.50000000  0.20000000
  0.40000000  0.50000000  0.30000000
  0.40000000  0.50000000  0.40000000
  0.40000000  0.50000000  0.50000000
  0.40000000  0.50000000  0.60000000
  0.40000000  0.50000000  0.70000000
  0.40000000  0.50000000  0.80000000
  0.40000000  0.50000000  0.90000000
  0.40000000  0.60000000  0.00000000
  0.40000000  0.60000000  0.10000000
  0.40000000  0.60000000  0.20000000
  0.40000000  0.60000000  0.30000000
  0.40000000  0.60000000  0.40000000
  0.40000000  0.60000000  0.50000000
  0.40000000  0.60000000  0.60000000
  0.40000000  0.60000000  0.70000000
  0.40000000  0.60000000  0.80000000
  0.40000000  0.60000000  0.90000000
  0.40000000  0.70000000  0.00000000
  0.40000000  0.70000000  0.10000000
  0.40000000  0.70000000  0.20000000
  0.40000000  0.70000000  0.30000000
  0.40000000  0.70000000  0.40000000
  0.40000000  0.70000000  0.50000000
  0.40000000  0.70000000  0.60000000
  0.40000000  0.70000000  0.70000000
  0.40000000  0.70000000  0.80000000
  0.40000000  0.70000000  0.90000000
  0.40000000  0.80000000  0.00000000
  0.40000000  0.80000000  0.10000000
  0.40000000  0.80000000  0.20000000
  0.40000000  0.80000000  0.30000000
  0.40000000  0.80000000  0.40000000
  0.40000000  0.80000000  0.50000000
  0.40000000  0.80000000  0.60000000
  0.40000000  0.80000000  0.70000000
  0.40000000  0.80000000  0.80000000
  0.40000000  0.80000000  0.90000000
  0.40000000  0.90000000  0.00000000
  0.40000000  0.90000000  0.10000000
  0.40000000  0.90000000  0.20000000
  0.40000000  0.90000000  0.30000000
  0.40000000  0.90000000  0.40000000
  0.40000000  0.90000000  0.50000000
  0.40000000  0.90000000  0.60000000
  0.40000000  0.90000000  0.70000000
  0.40000000  0.90000000  0.80000000
  0.40000000  0.90000000  0.90000000
  0.50000000  0.00000000  0.00000000
  0.50000000  0.00000000  0.10000000
  0.50000000  0.00000000  0.20000000
  0.50000000  0.00000000  0.30000000
  0.50000000  0.00000000  0.40000000
  0.50000000  0.00000000  0.50000000
  0.50000000  0.00000000  0.60000000
  0.50000000  0.00000000  0.70000000
  0.50000000  0.00000000  0.80000000
  0.50000000  0.00000000  0.90000000
  0.50000000  0.10000000  0.00000000
  0.50000000  0.10000000  0.10000000
  0.50000000  0.10000000  0.20000000
  0.50000000  0.10000000  0.30000000
  0.50000000  0.10000000  0.40000000
  0.50000000  0.10000000  0.50000000
  0.50000000  0.10000000  0.60000000
  0.50000000  0.10000000  0.70000000
  0.50000000  0.10000000  0.80000000
  0.50000000  0.10000000  0.90000000
  0.50000000  0.20000000  0.00000000
  0.50000000  0.20000000  0.10000000
  0.50000000  0.20000000  0.20000000
  0.50000000  0.20000000  0.30000000
  0.50000000  0.20000000  0.40000000
  0.50000000  0.20000000  0.50000000
  0.50000000  0.20000000  0.60000000
  0.50000000  0.20000000  0.70000000
  0.50000000  0.20000000  0.80000000
  0.50000000  0.20000000  0.90000000
  0.50000000  0.30000000  0.00000000
  0.50000000  0.30000000  0.10000000
  0.50000000  0.30000000  0.20000000
  0.50000000  0.30000000  0.30000000
  0.50000000  0.30000000  0.40000000
  0.50000000  0.30000000  0.50000000
  0.50000000  0.30000000  0.60000000
  0.50000000  0.30000000  0.70000000
  0.50000000  0.30000000  0.80000000
  0.50000000  0.30000000  0.90000000
  0.50000000  0.40000000  0.00000000
  0.50000000  0.40000000  0.10000000
  0.50000000  0.40000000  0.20000000
  0.50000000  0.40000000  0.30000000
  0.50000000  0.40000000  0.40000000
  0.50000000  0.40000000  0.50000000
  0.50000000  0.40000000  0.60000000
  0.50000000  0.40000000  0.70000000
  0.50000000  0.40000000  0.80000000
  0.50000000  0.40000000  0.90000000
  0.50000000  0.50000000  0.00000000
  0.50000000  0.50000000  0.10000000
  0.50000000  0.50000000  0.20000000
  0.50000000  0.50000000  0.30000000
  0.50000000  0.50000000  0.40000000
  0.50000000  0.50000000  0.50000000
  0.50000000  0.50000000  0.60000000
  0.50000000  0.50000000  0.70000000
  0.50000000  0.50000000  0.80000000
  0.50000000  0.50000000  0.90000000
  0.50000000  0.60000000  0.00000000
  0.50000000  0.60000000  0.10000000
  0.50000000  0.60000000  0.20000000
  0.50000000  0.60000000  0.30000000
  0.50000000  0.60000000  0.40000000
  0.50000000  0.60000000  0.50000000
  0.50000000  0.60000000  0.60000000
  0.50000000  0.60000000  0.70000000
  0.50000000  0.60000000  0.80000000
  0.50000000  0.60000000  0.90000000
  0.50000000  0.70000000  0.00000000
  0.50000000  0.70000000  0.10000000
  0.50000000  0.70000000  0.20000000
  0.50000000  0.70000000  0.30000000
  0.50000000  0.70000000  0.40000000
  0.50000000  0.70000000  0.50000000
  0.50000000  0.70000000  0.60000000
  0.50000000  0.70000000  0.70000000
  0.50000000  0.70000000  0.80000000
  0.50000000  0.70000000  0.90000000
  0.50000000  0.80000000  0.00000000
  0.50000000  0.80000000  0.10000000
  0.50000000  0.80000000  0.20000000
  0.50000000  0.80000000  0.30000000
  0.50000000  0.80000000  0.40000000
  0.50000000  0.80000000  0.50000000
  0.50000000  0.80000000  0.60000000
  0.50000000  0.80000000  0.70000000
  0.50000000  0.80000000  0.80000000
  0.50000000  0.80000000  0.90000000
  0.50000000  0.90000000  0.00000000
  0.50000000  0.90000000  0.10000000
  0.50000000  0.90000000  0.20000000
  0.50000000  0.90000000  0.30000000
  0.50000000  0.90000000  0.40000000
  0.50000000  0.90000000  0.50000000
  0.50000000  0.90000000  0.60000000
  0.50000000  0.90000000  0.70000000
  0.50000000  0.90000000  0.80000000
  0.50000000  0.90000000  0.90000000
  0.60000000  0.00000000  0.00000000
  0.60000000  0.00000000  0.10000000
  0.60000000  0.00000000  0.20000000
  0.60000000  0.00000000  0.30000000
  0.60000000  0.00000000  0.40000000
  0.60000000  0.00000000  0.50000000
  0.60000000  0.00000000  0.60000000
  0.60000000  0.00000000  0.70000000
  0.60000000  0.00000000  0.80000000
  0.60000000  0.00000000  0.90000000
  0.60000000  0.10000000  0.00000000
  0.60000000  0.10000000  0.10000000
  0.60000000  0.10000000  0.20000000
  0.60000000  0.10000000  0.30000000
  0.60000000  0.10000000  0.40000000
  0.60000000  0.10000000  0.50000000
  0.60000000  0.10000000  0.60000000
  0.60000000  0.10000000  0.70000000
  0.60000000  0.10000000  0.80000000
  0.60000000  0.10000000  0.90000000
  0.60000000  0.20000000  0.00000000
  0.60000000  0.20000000  0.10000000
  0.60000000  0.20000000  0.20000000
  0.60000000  0.20000000  0.30000000
  0.60000000  0.20000000  0.40000000
  0.60000000  0.20000000  0.50000000
  0.60000000  0.20000000  0.60000000
  0.60000000  0.20000000  0.70000000
  0.60000000  0.20000000  0.80000000
  0.60000000  0.20000000  0.90000000
  0.60000000  0.30000000  0.00000000
  0.60000000  0.30000000  0.10000000
  0.60000000  0.30000000  0.20000000
  0.60000000  0.30000000  0.30000000
  0.60000000  0.30000000  0.40000000
  0.60000000  0.30000000  0.50000000
  0.60000000  0.30000000  0.60000000
  0.60000000  0.30000000  0.70000000
  0.60000000  0.30000000  0.80000000
  0.60000000  0.30000000  0.90000000
  0.60000000  0.40000000  0.00000000
  0.60000000  0.40000000  0.10000000
  0.60000000  0.40000000  0.20000000
  0.60000000  0.40000000  0.30000000
  0.60000000  0.40000000  0.40000000
  0.60000000  0.40000000  0.50000000
  0.60000000  0.40000000  0.60000000
  0.60000000  0.40000000  0.70000000
  0.60000000  0.40000000  0.80000000
  0.60000000  0.40000000  0.90000000
  0.60000000  0.50000000  0.00000000
  0.60000000  0.50000000  0.10000000
  0.60000000  0.50000000  0.20000000
  0.60000000  0.50000000  0.30000000
  0.60000000  0.50000000  0.40000000
  0.60000000  0.50000000  0.50000000
  0.60000000  0.50000000  0.60000000
  0.60000000  0.50000000  0.70000000
  0.60000000  0.50000000  0.80000000
  0.60000000  0.50000000  0.90000000
  0.60000000  0.60000000  0.00000000
  0.60000000  0.60000000  0.10000000
  0.60000000  0.60000000  0.20000000
  0.60000000  0.60000000  0.30000000
  0.60000000  0.60000000  0.40000000
  0.60000000  0.60000000  0.50000000
  0.60000000  0.60000000  0.60000000
  0.60000000  0.60000000  0.70000000
  0.60000000  0.60000000  0.80000000
  0.60000000  0.60000000  0.90000000
  0.60000000  0.70000000  0.00000000
  0.60000000  0.70000000  0.10000000
  0.60000000  0.70000000  0.20000000
  0.60000000  0.70000000  0.30000000
  0.60000000  0.70000000  0.40000000
  0.60000000  0.70000000  0.50000000
  0.60000000  0.70000000  0.60000000
  0.60000000  0.70000000  0.70000000
  0.60000000  0.70000000  0.80000000
  0.60000000  0.70000000  0.90000000
  0.60000000  0.80000000  0.00000000
  0.60000000  0.80000000  0.10000000
  0.60000000  0.80000000  0.20000000
  0.60000000  0.80000000  0.30000000
  0.60000000  0.80000000  0.40000000
  0.60000000  0.80000000  0.50000000
  0.60000000  0.80000000  0.60000000
  0.60000000  0.80000000  0.70000000
  0.60000000  0.80000000  0.80000000
  0.60000000  0.80000000  0.90000000
  0.60000000  0.90000000  0.00000000
  0.60000000  0.90000000  0.10000000
  0.60000000  0.90000000  0.20000000
  0.60000000  0.90000000  0.30000000
  0.60000000  0.90000000  0.40000000
  0.60000000  0.90000000  0.50000000
  0.60000000  0.90000000  0.60000000
  0.60000000  0.90000000  0.70000000
  0.60000000  0.90000000  0.80000000
  0.60000000  0.90000000  0.90000000
  0.70000000  0.00000000  0.00000000
  0.70000000  0.00000000  0.10000000
  0.70000000  0.00000000  0.20000000
  0.70000000  0.00000000  0.30000000
  0.70000000  0.00000000  0.40000000
  0.70000000  0.00000000  0.50000000
  0.70000000  0.00000000  0.60000000
  0.70000000  0.00000000  0.70000000
  0.70000000  0.00000000  0.80000000
  0.70000000  0.00000000  0.90000000
  0.70000000  0.10000000  0.00000000
  0.70000000  0.10000000  0.10000000
  0.70000000  0.10000000  0.20000000
  0.70000000  0.10000000  0.30000000
  0.70000000  0.10000000  0.40000000
  0.70000000  0.10000000  0.50000000
  0.70000000  0.10000000  0.60000000
  0.70000000  0.10000000  0.70000000
  0.70000000  0.10000000  0.80000000
  0.70000000  0.10000000  0.90000000
  0.70000000  0.20000000  0.00000000
  0.70000000  0.20000000  0.10000000
  0.70000000  0.20000000  0.20000000
  0.70000000  0.20000000  0.30000000
  0.70000000  0.20000000  0.40000000
  0.70000000  0.20000000  0.50000000
  0.70000000  0.20000000  0.60000000
  0.70000000  0.20000000  0.70000000
  0.70000000  0.20000000  0.80000000
  0.70000000  0.20000000  0.90000000
  0.70000000  0.30000000  0.00000000
  0.70000000  0.30000000  0.10000000
  0.70000000  0.30000000  0.20000000
  0.70000000  0.30000000  0.30000000
  0.70000000  0.30000000  0.40000000
  0.70000000  0.30000000  0.50000000
  0.70000000  0.30000000  0.60000000
  0.70000000  0.30000000  0.70000000
  0.70000000  0.30000000  0.80000000
  0.70000000  0.30000000  0.90000000
  0.70000000  0.40000000  0.00000000
  0.70000000  0.40000000  0.10000000
  0.70000000  0.40000000  0.20000000
  0.70000000  0.40000000  0.30000000
  0.70000000  0.40000000  0.40000000
  0.70000000  0.40000000  0.50000000
  0.70000000  0.40000000  0.60000000
  0.70000000  0.40000000  0.70000000
  0.70000000  0.40000000  0.80000000
  0.70000000  0.40000000  0.90000000
  0.70000000  0.50000000  0.00000000
  0.70000000  0.50000000  0.10000000
  0.70000000  0.50000000  0.20000000
  0.70000000  0.50000000  0.30000000
  0.70000000  0.50000000  0.40000000
  0.70000000  0.50000000  0.50000000
  0.70000000  0.50000000  0.60000000
  0.70000000  0.50000000  0.70000000
  0.70000000  0.50000000  0.80000000
  0.70000000  0.50000000  0.90000000
  0.70000000  0.60000000  0.00000000
  0.70000000  0.60000000  0.10000000
  0.70000000  0.60000000  0.20000000
  0.70000000  0.60000000  0.30000000
  0.70000000  0.60000000  0.40000000
  0.70000000  0.60000000  0.50000000
  0.70000000  0.60000000  0.60000000
  0.70000000  0.60000000  0.70000000
  0.70000000  0.60000000  0.80000000
  0.70000000  0.60000000  0.90000000
  0.70000000  0.70000000  0.00000000
  0.70000000  0.70000000  0.10000000
  0.70000000  0.70000000  0.20000000
  0.70000000  0.70000000  0.30000000
  0.70000000  0.70000000  0.40000000
  0.70000000  0.70000000  0.50000000
  0.70000000  0.70000000  0.60000000
  0.70000000  0.70000000  0.70000000
  0.70000000  0.70000000  0.80000000
  0.70000000  0.70000000  0.90000000
  0.70000000  0.80000000  0.00000000
  0.70000000  0.80000000  0.10000000
  0.70000000  0.80000000  0.20000000
  0.70000000  0.80000000  0.30000000
  0.70000000  0.80000000  0.40000000
  0.70000000  0.80000000  0.50000000
  0.70000000  0.80000000  0.60000000
  0.70000000  0.80000000  0.70000000
  0.70000000  0.80000000  0.80000000
  0.70000000  0.80000000  0.90000000
  0.70000000  0.90000000  0.00000000
  0.70000000  0.90000000  0.10000000
  0.70000000  0.90000000  0.20000000
  0.70000000  0.90000000  0.30000000
  0.70000000  0.90000000  0.40000000
  0.70000000  0.90000000  0.50000000