Tl1 Cl1
1.0
   3.8374670852415620    0.0000000000000000    0.0000000000000000
   0.0000000000000000    3.8374670852415620    0.0000000000000000
   0.0000000000000000    0.0000000000000000    3.8374670852415620
Tl Cl
1 1
direct
   0.0000000000000000    0.0000000000000000    0.0000000000000000 Tl
   0.5000000384053377    0.5000000384053376    0.5000000384053377 Cl
