&inputpp
    prefix = 'mp-1143'
    outdir='out/',
    plot_num=10,
    emin = 15.54702321602209,
    emax = 16.74702321602209,
    delta_e = 0.1,
/
&plot
    iflag=3,
    output_format=6,
    fileout='ldos.cube',
/
