Sn2 O4
1.0
   4.7648176790111370    0.0000000000000000    0.0000000000000000
   0.0000000000000000    4.7648176790111370    0.0000000000000000
   0.0000000000000000    0.0000000000000000    3.2074995236297963
Sn O
2 4
direct
   0.5000000384053377    0.5000000384053376    0.5000000384053376 Sn
   0.0000000000000000    0.0000000000000000    0.0000000000000000 Sn
   0.8059723569072762    0.1940277199033990    0.5000000384053376 O
   0.1940277199033991    0.8059723569072762    0.5000000384053376 O
   0.3059723185019386    0.3059723185019387    0.0000000000000001 O
   0.6940277583087368    0.6940277583087366    0.0000000000000001 O
