Sr1 Se1
1.0
  -3.1397106330376841    0.0000000000000000    3.1397106330376841
   0.0000000000000000    3.1397106330376841    3.1397106330376841
  -3.1397106330376841    3.1397106330376841    0.0000000000000000
Sr Se
1 1
direct
   0.0000000000000000    0.0000000000000000    0.0000000000000000 Sr
   0.4999999615946624    0.5000000384053375    0.4999999615946624 Se
