&inputpp
    prefix = 'mp-1087'
    outdir='out/',
    plot_num=10,
    emin = 8.176691126013809,
    emax = 9.176691126013809,
    delta_e = 0.1,
/
&plot
    iflag=3,
    output_format=6,
    fileout='ldos.cube',
/
