&inputpp
    prefix = 'mp-23202'
    outdir='out/',
    plot_num=10,
    emin = 8.27208533936796,
    emax = 9.47208533936796,
    delta_e = 0.1,
/
&plot
    iflag=3,
    output_format=6,
    fileout='ldos.cube',
/
