num_wann = 36
exclude_bands = 1-20 57-112
num_iter = 500

auto_projections =.true.

begin atoms_frac
As 0.38034754000000015 0.19738299999999995 0.26337217000000007
As 0.6196524599999997 0.6973830000000001 0.23662782999999982
As 0.6196524599999998 0.802617 0.73662783
As 0.3803475400000002 0.30261699999999997 0.7633721700000002
As 0.10885333000000007 0.3219003499999999 0.48493644000000014
As 0.8911466699999999 0.82190035 0.01506355999999975
As 0.89114667 0.67809965 0.5150635599999999
As 0.10885333000000012 0.17809965000000003 0.9849364400000002
Se 0.8689071700000004 0.12425233999999995 0.40089952000000006
Se 0.13109282999999958 0.62425234 0.0991004799999998
Se 0.13109282999999963 0.87574766 0.5991004799999999
Se 0.8689071700000004 0.37574766 0.9008995200000002
Se 0.31430141000000006 0.4003827399999999 0.3441763300000001
Se 0.6856985899999999 0.90038274 0.15582366999999983
Se 0.68569859 0.59961726 0.65582367
Se 0.3143014100000001 0.09961726000000003 0.8441763300000001
Se 0.5486339600000003 0.29358557999999996 0.11956954000000006
Se 0.4513660399999996 0.79358558 0.3804304599999998
Se 0.45136603999999964 0.70641442 0.8804304599999999
Se 0.5486339600000004 0.20641441999999996 0.6195695400000002
end atoms_frac

geninterp = true
geninterp_alsofirstder = true

begin unit_cell_cart
4.490684 0.000000 0.000000
0.000000 10.376721 0.000000
-4.393240 0.000000 12.053628
end unit_cell_cart

mp_grid : 10 4 4

begin kpoints
  0.00000000  0.00000000  0.00000000
  0.00000000  0.00000000  0.25000000
  0.00000000  0.00000000  0.50000000
  0.00000000  0.00000000  0.75000000
  0.00000000  0.25000000  0.00000000
  0.00000000  0.25000000  0.25000000
  0.00000000  0.25000000  0.50000000
  0.00000000  0.25000000  0.75000000
  0.00000000  0.50000000  0.00000000
  0.00000000  0.50000000  0.25000000
  0.00000000  0.50000000  0.50000000
  0.00000000  0.50000000  0.75000000
  0.00000000  0.75000000  0.00000000
  0.00000000  0.75000000  0.25000000
  0.00000000  0.75000000  0.50000000
  0.00000000  0.75000000  0.75000000
  0.10000000  0.00000000  0.00000000
  0.10000000  0.00000000  0.25000000
  0.10000000  0.00000000  0.50000000
  0.10000000  0.00000000  0.75000000
  0.10000000  0.25000000  0.00000000
  0.10000000  0.25000000  0.25000000
  0.10000000  0.25000000  0.50000000
  0.10000000  0.25000000  0.75000000
  0.10000000  0.50000000  0.00000000
  0.10000000  0.50000000  0.25000000
  0.10000000  0.50000000  0.50000000
  0.10000000  0.50000000  0.75000000
  0.10000000  0.75000000  0.00000000
  0.10000000  0.75000000  0.25000000
  0.10000000  0.75000000  0.50000000
  0.10000000  0.75000000  0.75000000
  0.20000000  0.00000000  0.00000000
  0.20000000  0.00000000  0.25000000
  0.20000000  0.00000000  0.50000000
  0.20000000  0.00000000  0.75000000
  0.20000000  0.25000000  0.00000000
  0.20000000  0.25000000  0.25000000
  0.20000000  0.25000000  0.50000000
  0.20000000  0.25000000  0.75000000
  0.20000000  0.50000000  0.00000000
  0.20000000  0.50000000  0.25000000
  0.20000000  0.50000000  0.50000000
  0.20000000  0.50000000  0.75000000
  0.20000000  0.75000000  0.00000000
  0.20000000  0.75000000  0.25000000
  0.20000000  0.75000000  0.50000000
  0.20000000  0.75000000  0.75000000
  0.30000000  0.00000000  0.00000000
  0.30000000  0.00000000  0.25000000
  0.30000000  0.00000000  0.50000000
  0.30000000  0.00000000  0.75000000
  0.30000000  0.25000000  0.00000000
  0.30000000  0.25000000  0.25000000
  0.30000000  0.25000000  0.50000000
  0.30000000  0.25000000  0.75000000
  0.30000000  0.50000000  0.00000000
  0.30000000  0.50000000  0.25000000
  0.30000000  0.50000000  0.50000000
  0.30000000  0.50000000  0.75000000
  0.30000000  0.75000000  0.00000000
  0.30000000  0.75000000  0.25000000
  0.30000000  0.75000000  0.50000000
  0.30000000  0.75000000  0.75000000
  0.40000000  0.00000000  0.00000000
  0.40000000  0.00000000  0.25000000
  0.40000000  0.00000000  0.50000000
  0.40000000  0.00000000  0.75000000
  0.40000000  0.25000000  0.00000000
  0.40000000  0.25000000  0.25000000
  0.40000000  0.25000000  0.50000000
  0.40000000  0.25000000  0.75000000
  0.40000000  0.50000000  0.00000000
  0.40000000  0.50000000  0.25000000
  0.40000000  0.50000000  0.50000000
  0.40000000  0.50000000  0.75000000
  0.40000000  0.75000000  0.00000000
  0.40000000  0.75000000  0.25000000
  0.40000000  0.75000000  0.50000000
  0.40000000  0.75000000  0.75000000
  0.50000000  0.00000000  0.00000000
  0.50000000  0.00000000  0.25000000
  0.50000000  0.00000000  0.50000000
  0.50000000  0.00000000  0.75000000
  0.50000000  0.25000000  0.00000000
  0.50000000  0.25000000  0.25000000
  0.50000000  0.25000000  0.50000000
  0.50000000  0.25000000  0.75000000
  0.50000000  0.50000000  0.00000000
  0.50000000  0.50000000  0.25000000
  0.50000000  0.50000000  0.50000000
  0.50000000  0.50000000  0.75000000
  0.50000000  0.75000000  0.00000000
  0.50000000  0.75000000  0.25000000
  0.50000000  0.75000000  0.50000000
  0.50000000  0.75000000  0.75000000
  0.60000000  0.00000000  0.00000000
  0.60000000  0.00000000  0.25000000
  0.60000000  0.00000000  0.50000000
  0.60000000  0.00000000  0.75000000
  0.60000000  0.25000000  0.00000000
  0.60000000  0.25000000  0.25000000
  0.60000000  0.25000000  0.50000000
  0.60000000  0.25000000  0.75000000
  0.60000000  0.50000000  0.00000000
  0.60000000  0.50000000  0.25000000
  0.60000000  0.50000000  0.50000000
  0.60000000  0.50000000  0.75000000
  0.60000000  0.75000000  0.00000000
  0.60000000  0.75000000  0.25000000
  0.60000000  0.75000000  0.50000000
  0.60000000  0.75000000  0.75000000
  0.70000000  0.00000000  0.00000000
  0.70000000  0.00000000  0.25000000
  0.70000000  0.00000000  0.50000000
  0.70000000  0.00000000  0.75000000
  0.70000000  0.25000000  0.00000000
  0.70000000  0.25000000  0.25000000
  0.70000000  0.25000000  0.50000000
  0.70000000  0.25000000  0.75000000
  0.70000000  0.50000000  0.00000000
  0.70000000  0.50000000  0.25000000
  0.70000000  0.50000000  0.50000000
  0.70000000  0.50000000  0.75000000
  0.70000000  0.75000000  0.00000000
  0.70000000  0.75000000  0.25000000
  0.70000000  0.75000000  0.50000000
  0.70000000  0.75000000  0.75000000
  0.80000000  0.00000000  0.00000000
  0.80000000  0.00000000  0.25000000
  0.80000000  0.00000000  0.50000000
  0.80000000  0.00000000  0.75000000
  0.80000000  0.25000000  0.00000000
  0.80000000  0.25000000  0.25000000
  0.80000000  0.25000000  0.50000000
  0.80000000  0.25000000  0.75000000
  0.80000000  0.50000000  0.00000000
  0.80000000  0.50000000  0.25000000
  0.80000000  0.50000000  0.50000000
  0.80000000  0.50000000  0.75000000
  0.80000000  0.75000000  0.00000000
  0.80000000  0.75000000  0.25000000
  0.80000000  0.75000000  0.50000000
  0.80000000  0.75000000  0.75000000
  0.90000000  0.00000000  0.00000000
  0.90000000  0.00000000  0.25000000
  0.90000000  0.00000000  0.50000000
  0.90000000  0.00000000  0.75000000
  0.90000000  0.25000000  0.00000000
  0.90000000  0.25000000  0.25000000
  0.90000000  0.25000000  0.50000000
  0.90000000  0.25000000  0.75000000
  0.90000000  0.50000000  0.00000000
  0.90000000  0.50000000  0.25000000
  0.90000000  0.50000000  0.50000000
  0.90000000  0.50000000  0.75000000
  0.90000000  0.75000000  0.00000000
  0.90000000  0.75000000  0.25000000
  0.90000000  0.75000000  0.50000000
  0.90000000  0.75000000  0.75000000
end kpoints

