&CONTROL
  calculation = 'nscf',
  disk_io = 'low',
  outdir = 'out/',
  prefix = 'mp-909',
  pseudo_dir = '/usr/scratch4/magr4985/MG/devEb/pseudo/SG15',
/
&SYSTEM
  degauss = 0.0004593661607577953,
  ecutwfc = 65,
  force_symmorphic = .FALSE.,
  nbnd = 112,
  nosym = .TRUE.,
  occupations = 'smearing',
  smearing = 'gaussian',
  ibrav = 0,
  nat = 20,
  ntyp = 2,
/
&ELECTRONS
  conv_thr = 1d-10,
  diago_full_acc = .TRUE.,
  diago_thr_init = 5d-06,
  diagonalization = 'david',
/
&IONS
/
&CELL
/
ATOMIC_SPECIES
  As  74.9216 As.upf
  Se  78.9600 Se.upf
ATOMIC_POSITIONS crystal
  As 0.38034754 0.19738300 0.26337217
  As 0.61965246 0.69738300 0.23662783
  As 0.61965246 0.80261700 0.73662783
  As 0.38034754 0.30261700 0.76337217
  As 0.10885333 0.32190035 0.48493644
  As 0.89114667 0.82190035 0.01506356
  As 0.89114667 0.67809965 0.51506356
  As 0.10885333 0.17809965 0.98493644
  Se 0.86890717 0.12425234 0.40089952
  Se 0.13109283 0.62425234 0.09910048
  Se 0.13109283 0.87574766 0.59910048
  Se 0.86890717 0.37574766 0.90089952
  Se 0.31430141 0.40038274 0.34417633
  Se 0.68569859 0.90038274 0.15582367
  Se 0.68569859 0.59961726 0.65582367
  Se 0.31430141 0.09961726 0.84417633
  Se 0.54863396 0.29358558 0.11956954
  Se 0.45136604 0.79358558 0.38043046
  Se 0.45136604 0.70641442 0.88043046
  Se 0.54863396 0.20641442 0.61956954
K_POINTS crystal
160
  0.00000000  0.00000000  0.00000000  6.250000e-03
  0.00000000  0.00000000  0.25000000  6.250000e-03
  0.00000000  0.00000000  0.50000000  6.250000e-03
  0.00000000  0.00000000  0.75000000  6.250000e-03
  0.00000000  0.25000000  0.00000000  6.250000e-03
  0.00000000  0.25000000  0.25000000  6.250000e-03
  0.00000000  0.25000000  0.50000000  6.250000e-03
  0.00000000  0.25000000  0.75000000  6.250000e-03
  0.00000000  0.50000000  0.00000000  6.250000e-03
  0.00000000  0.50000000  0.25000000  6.250000e-03
  0.00000000  0.50000000  0.50000000  6.250000e-03
  0.00000000  0.50000000  0.75000000  6.250000e-03
  0.00000000  0.75000000  0.00000000  6.250000e-03
  0.00000000  0.75000000  0.25000000  6.250000e-03
  0.00000000  0.75000000  0.50000000  6.250000e-03
  0.00000000  0.75000000  0.75000000  6.250000e-03
  0.10000000  0.00000000  0.00000000  6.250000e-03
  0.10000000  0.00000000  0.25000000  6.250000e-03
  0.10000000  0.00000000  0.50000000  6.250000e-03
  0.10000000  0.00000000  0.75000000  6.250000e-03
  0.10000000  0.25000000  0.00000000  6.250000e-03
  0.10000000  0.25000000  0.25000000  6.250000e-03
  0.10000000  0.25000000  0.50000000  6.250000e-03
  0.10000000  0.25000000  0.75000000  6.250000e-03
  0.10000000  0.50000000  0.00000000  6.250000e-03
  0.10000000  0.50000000  0.25000000  6.250000e-03
  0.10000000  0.50000000  0.50000000  6.250000e-03
  0.10000000  0.50000000  0.75000000  6.250000e-03
  0.10000000  0.75000000  0.00000000  6.250000e-03
  0.10000000  0.75000000  0.25000000  6.250000e-03
  0.10000000  0.75000000  0.50000000  6.250000e-03
  0.10000000  0.75000000  0.75000000  6.250000e-03
  0.20000000  0.00000000  0.00000000  6.250000e-03
  0.20000000  0.00000000  0.25000000  6.250000e-03
  0.20000000  0.00000000  0.50000000  6.250000e-03
  0.20000000  0.00000000  0.75000000  6.250000e-03
  0.20000000  0.25000000  0.00000000  6.250000e-03
  0.20000000  0.25000000  0.25000000  6.250000e-03
  0.20000000  0.25000000  0.50000000  6.250000e-03
  0.20000000  0.25000000  0.75000000  6.250000e-03
  0.20000000  0.50000000  0.00000000  6.250000e-03
  0.20000000  0.50000000  0.25000000  6.250000e-03
  0.20000000  0.50000000  0.50000000  6.250000e-03
  0.20000000  0.50000000  0.75000000  6.250000e-03
  0.20000000  0.75000000  0.00000000  6.250000e-03
  0.20000000  0.75000000  0.25000000  6.250000e-03
  0.20000000  0.75000000  0.50000000  6.250000e-03
  0.20000000  0.75000000  0.75000000  6.250000e-03
  0.30000000  0.00000000  0.00000000  6.250000e-03
  0.30000000  0.00000000  0.25000000  6.250000e-03
  0.30000000  0.00000000  0.50000000  6.250000e-03
  0.30000000  0.00000000  0.75000000  6.250000e-03
  0.30000000  0.25000000  0.00000000  6.250000e-03
  0.30000000  0.25000000  0.25000000  6.250000e-03
  0.30000000  0.25000000  0.50000000  6.250000e-03
  0.30000000  0.25000000  0.75000000  6.250000e-03
  0.30000000  0.50000000  0.00000000  6.250000e-03
  0.30000000  0.50000000  0.25000000  6.250000e-03
  0.30000000  0.50000000  0.50000000  6.250000e-03
  0.30000000  0.50000000  0.75000000  6.250000e-03
  0.30000000  0.75000000  0.00000000  6.250000e-03
  0.30000000  0.75000000  0.25000000  6.250000e-03
  0.30000000  0.75000000  0.50000000  6.250000e-03
  0.30000000  0.75000000  0.75000000  6.250000e-03
  0.40000000  0.00000000  0.00000000  6.250000e-03
  0.40000000  0.00000000  0.25000000  6.250000e-03
  0.40000000  0.00000000  0.50000000  6.250000e-03
  0.40000000  0.00000000  0.75000000  6.250000e-03
  0.40000000  0.25000000  0.00000000  6.250000e-03
  0.40000000  0.25000000  0.25000000  6.250000e-03
  0.40000000  0.25000000  0.50000000  6.250000e-03
  0.40000000  0.25000000  0.75000000  6.250000e-03
  0.40000000  0.50000000  0.00000000  6.250000e-03
  0.40000000  0.50000000  0.25000000  6.250000e-03
  0.40000000  0.50000000  0.50000000  6.250000e-03
  0.40000000  0.50000000  0.75000000  6.250000e-03
  0.40000000  0.75000000  0.00000000  6.250000e-03
  0.40000000  0.75000000  0.25000000  6.250000e-03
  0.40000000  0.75000000  0.50000000  6.250000e-03
  0.40000000  0.75000000  0.75000000  6.250000e-03
  0.50000000  0.00000000  0.00000000  6.250000e-03
  0.50000000  0.00000000  0.25000000  6.250000e-03
  0.50000000  0.00000000  0.50000000  6.250000e-03
  0.50000000  0.00000000  0.75000000  6.250000e-03
  0.50000000  0.25000000  0.00000000  6.250000e-03
  0.50000000  0.25000000  0.25000000  6.250000e-03
  0.50000000  0.25000000  0.50000000  6.250000e-03
  0.50000000  0.25000000  0.75000000  6.250000e-03
  0.50000000  0.50000000  0.00000000  6.250000e-03
  0.50000000  0.50000000  0.25000000  6.250000e-03
  0.50000000  0.50000000  0.50000000  6.250000e-03
  0.50000000  0.50000000  0.75000000  6.250000e-03
  0.50000000  0.75000000  0.00000000  6.250000e-03
  0.50000000  0.75000000  0.25000000  6.250000e-03
  0.50000000  0.75000000  0.50000000  6.250000e-03
  0.50000000  0.75000000  0.75000000  6.250000e-03
  0.60000000  0.00000000  0.00000000  6.250000e-03
  0.60000000  0.00000000  0.25000000  6.250000e-03
  0.60000000  0.00000000  0.50000000  6.250000e-03
  0.60000000  0.00000000  0.75000000  6.250000e-03
  0.60000000  0.25000000  0.00000000  6.250000e-03
  0.60000000  0.25000000  0.25000000  6.250000e-03
  0.60000000  0.25000000  0.50000000  6.250000e-03
  0.60000000  0.25000000  0.75000000  6.250000e-03
  0.60000000  0.50000000  0.00000000  6.250000e-03
  0.60000000  0.50000000  0.25000000  6.250000e-03
  0.60000000  0.50000000  0.50000000  6.250000e-03
  0.60000000  0.50000000  0.75000000  6.250000e-03
  0.60000000  0.75000000  0.00000000  6.250000e-03
  0.60000000  0.75000000  0.25000000  6.250000e-03
  0.60000000  0.75000000  0.50000000  6.250000e-03
  0.60000000  0.75000000  0.75000000  6.250000e-03
  0.70000000  0.00000000  0.00000000  6.250000e-03
  0.70000000  0.00000000  0.25000000  6.250000e-03
  0.70000000  0.00000000  0.50000000  6.250000e-03
  0.70000000  0.00000000  0.75000000  6.250000e-03
  0.70000000  0.25000000  0.00000000  6.250000e-03
  0.70000000  0.25000000  0.25000000  6.250000e-03
  0.70000000  0.25000000  0.50000000  6.250000e-03
  0.70000000  0.25000000  0.75000000  6.250000e-03
  0.70000000  0.50000000  0.00000000  6.250000e-03
  0.70000000  0.50000000  0.25000000  6.250000e-03
  0.70000000  0.50000000  0.50000000  6.250000e-03
  0.70000000  0.50000000  0.75000000  6.250000e-03
  0.70000000  0.75000000  0.00000000  6.250000e-03
  0.70000000  0.75000000  0.25000000  6.250000e-03
  0.70000000  0.75000000  0.50000000  6.250000e-03
  0.70000000  0.75000000  0.75000000  6.250000e-03
  0.80000000  0.00000000  0.00000000  6.250000e-03
  0.80000000  0.00000000  0.25000000  6.250000e-03
  0.80000000  0.00000000  0.50000000  6.250000e-03
  0.80000000  0.00000000  0.75000000  6.250000e-03
  0.80000000  0.25000000  0.00000000  6.250000e-03
  0.80000000  0.25000000  0.25000000  6.250000e-03
  0.80000000  0.25000000  0.50000000  6.250000e-03
  0.80000000  0.25000000  0.75000000  6.250000e-03
  0.80000000  0.50000000  0.00000000  6.250000e-03
  0.80000000  0.50000000  0.25000000  6.250000e-03
  0.80000000  0.50000000  0.50000000  6.250000e-03
  0.80000000  0.50000000  0.75000000  6.250000e-03
  0.80000000  0.75000000  0.00000000  6.250000e-03
  0.80000000  0.75000000  0.25000000  6.250000e-03
  0.80000000  0.75000000  0.50000000  6.250000e-03
  0.80000000  0.75000000  0.75000000  6.250000e-03
  0.90000000  0.00000000  0.00000000  6.250000e-03
  0.90000000  0.00000000  0.25000000  6.250000e-03
  0.90000000  0.00000000  0.50000000  6.250000e-03
  0.90000000  0.00000000  0.75000000  6.250000e-03
  0.90000000  0.25000000  0.00000000  6.250000e-03
  0.90000000  0.25000000  0.25000000  6.250000e-03
  0.90000000  0.25000000  0.50000000  6.250000e-03
  0.90000000  0.25000000  0.75000000  6.250000e-03
  0.90000000  0.50000000  0.00000000  6.250000e-03
  0.90000000  0.50000000  0.25000000  6.250000e-03
  0.90000000  0.50000000  0.50000000  6.250000e-03
  0.90000000  0.50000000  0.75000000  6.250000e-03
  0.90000000  0.75000000  0.00000000  6.250000e-03
  0.90000000  0.75000000  0.25000000  6.250000e-03
  0.90000000  0.75000000  0.50000000  6.250000e-03
  0.90000000  0.75000000  0.75000000  6.250000e-03

CELL_PARAMETERS angstrom
  4.490683968080547 0.000000000000000 0.000000000000000
  0.000000000000000 10.376720949999999 0.000000000000000
  -4.393239973354471 0.000000000000000 12.053627604085406

