&inputpp
    prefix = 'mp-23202'
    outdir='out/',
    plot_num=10,
    emin = 8.272085340681805,
    emax = 9.272085340681805,
    delta_e = 0.1,
/
&plot
    iflag=3,
    output_format=6,
    fileout='ldos.cube',
/
