Ga1 P1
1.0
  -2.7258122850833981    0.0000000000000000    2.7258122850833981
   0.0000000000000000    2.7258122850833981    2.7258122850833981
  -2.7258122850833981    2.7258122850833981    0.0000000000000000
Ga P
1 1
direct
   0.0000000000000000    0.0000000000000000    0.0000000000000000 Ga
   0.2500000192026688    0.2500000960133439    0.2499999423919936 P
