In2 Br2
1.0
   2.2943749581260660    6.1596266434563054    0.0000000000000000
  -2.2943749581260660    6.1596266434563054    0.0000000000000000
   0.0000000000000000    0.0000000000000000    4.6024185264851267
In Br
2 2
direct
   0.3934463770315491    0.3934463002208731    0.2500000192026689 In
   0.6065537765898020    0.6065537765898016    0.7500000576080063 In
   0.1512738584301156    0.1512737816194402    0.2500000192026688 Br
   0.8487262951912352    0.8487262951912345    0.7500000576080063 Br
