&inputpp
    prefix = 'mp-1985'
    outdir='out/',
    plot_num=10,
    emin = 15.998264618329925,
    emax = 16.998264618329927,
    delta_e = 0.1,
/
&plot
    iflag=3,
    output_format=6,
    fileout='ldos.cube',
/
