K1 Cl1
1.0
  -3.1418710586729763    0.0000000000000000    3.1418710586729763
   0.0000000000000000    3.1418710586729763    3.1418710586729763
  -3.1418710586729763    3.1418710586729763    0.0000000000000000
K Cl
1 1
direct
   0.0000000000000000    0.0000000000000000    0.0000000000000000 K
   0.4999999615946624    0.5000000384053376    0.4999999615946624 Cl
