&CONTROL
  calculation = 'nscf',
  disk_io = 'low',
  outdir = 'out/',
  prefix = 'mp-2534',
  pseudo_dir = '/usr/scratch4/magr4985/MG/devEb/pseudo/SG15',
/
&SYSTEM
  celldm(1) = 10.866268552014064,
  degauss = 0.0004593661607577953,
  ecutwfc = 65,
  force_symmorphic = .FALSE.,
  ibrav = 2,
  nbnd = 18,
  nosym = .TRUE.,
  occupations = 'smearing',
  smearing = 'gaussian',
  nat = 2,
  ntyp = 2,
/
&ELECTRONS
  conv_thr = 1d-10,
  diago_full_acc = .TRUE.,
  diago_thr_init = 5d-06,
  diagonalization = 'david',
/
&IONS
/
&CELL
/
ATOMIC_SPECIES
  As  74.9216 As.upf
  Ga  69.7230 Ga.upf
ATOMIC_POSITIONS crystal
  Ga 0.00000000 0.00000000 0.00000000
  As 0.25000002 0.25000010 0.24999994
K_POINTS crystal
1728
  0.00000000  0.00000000  0.00000000  5.787037e-04
  0.00000000  0.00000000  0.08333333  5.787037e-04
  0.00000000  0.00000000  0.16666667  5.787037e-04
  0.00000000  0.00000000  0.25000000  5.787037e-04
  0.00000000  0.00000000  0.33333333  5.787037e-04
  0.00000000  0.00000000  0.41666667  5.787037e-04
  0.00000000  0.00000000  0.50000000  5.787037e-04
  0.00000000  0.00000000  0.58333333  5.787037e-04
  0.00000000  0.00000000  0.66666667  5.787037e-04
  0.00000000  0.00000000  0.75000000  5.787037e-04
  0.00000000  0.00000000  0.83333333  5.787037e-04
  0.00000000  0.00000000  0.91666667  5.787037e-04
  0.00000000  0.08333333  0.00000000  5.787037e-04
  0.00000000  0.08333333  0.08333333  5.787037e-04
  0.00000000  0.08333333  0.16666667  5.787037e-04
  0.00000000  0.08333333  0.25000000  5.787037e-04
  0.00000000  0.08333333  0.33333333  5.787037e-04
  0.00000000  0.08333333  0.41666667  5.787037e-04
  0.00000000  0.08333333  0.50000000  5.787037e-04
  0.00000000  0.08333333  0.58333333  5.787037e-04
  0.00000000  0.08333333  0.66666667  5.787037e-04
  0.00000000  0.08333333  0.75000000  5.787037e-04
  0.00000000  0.08333333  0.83333333  5.787037e-04
  0.00000000  0.08333333  0.91666667  5.787037e-04
  0.00000000  0.16666667  0.00000000  5.787037e-04
  0.00000000  0.16666667  0.08333333  5.787037e-04
  0.00000000  0.16666667  0.16666667  5.787037e-04
  0.00000000  0.16666667  0.25000000  5.787037e-04
  0.00000000  0.16666667  0.33333333  5.787037e-04
  0.00000000  0.16666667  0.41666667  5.787037e-04
  0.00000000  0.16666667  0.50000000  5.787037e-04
  0.00000000  0.16666667  0.58333333  5.787037e-04
  0.00000000  0.16666667  0.66666667  5.787037e-04
  0.00000000  0.16666667  0.75000000  5.787037e-04
  0.00000000  0.16666667  0.83333333  5.787037e-04
  0.00000000  0.16666667  0.91666667  5.787037e-04
  0.00000000  0.25000000  0.00000000  5.787037e-04
  0.00000000  0.25000000  0.08333333  5.787037e-04
  0.00000000  0.25000000  0.16666667  5.787037e-04
  0.00000000  0.25000000  0.25000000  5.787037e-04
  0.00000000  0.25000000  0.33333333  5.787037e-04
  0.00000000  0.25000000  0.41666667  5.787037e-04
  0.00000000  0.25000000  0.50000000  5.787037e-04
  0.00000000  0.25000000  0.58333333  5.787037e-04
  0.00000000  0.25000000  0.66666667  5.787037e-04
  0.00000000  0.25000000  0.75000000  5.787037e-04
  0.00000000  0.25000000  0.83333333  5.787037e-04
  0.00000000  0.25000000  0.91666667  5.787037e-04
  0.00000000  0.33333333  0.00000000  5.787037e-04
  0.00000000  0.33333333  0.08333333  5.787037e-04
  0.00000000  0.33333333  0.16666667  5.787037e-04
  0.00000000  0.33333333  0.25000000  5.787037e-04
  0.00000000  0.33333333  0.33333333  5.787037e-04
  0.00000000  0.33333333  0.41666667  5.787037e-04
  0.00000000  0.33333333  0.50000000  5.787037e-04
  0.00000000  0.33333333  0.58333333  5.787037e-04
  0.00000000  0.33333333  0.66666667  5.787037e-04
  0.00000000  0.33333333  0.75000000  5.787037e-04
  0.00000000  0.33333333  0.83333333  5.787037e-04
  0.00000000  0.33333333  0.91666667  5.787037e-04
  0.00000000  0.41666667  0.00000000  5.787037e-04
  0.00000000  0.41666667  0.08333333  5.787037e-04
  0.00000000  0.41666667  0.16666667  5.787037e-04
  0.00000000  0.41666667  0.25000000  5.787037e-04
  0.00000000  0.41666667  0.33333333  5.787037e-04
  0.00000000  0.41666667  0.41666667  5.787037e-04
  0.00000000  0.41666667  0.50000000  5.787037e-04
  0.00000000  0.41666667  0.58333333  5.787037e-04
  0.00000000  0.41666667  0.66666667  5.787037e-04
  0.00000000  0.41666667  0.75000000  5.787037e-04
  0.00000000  0.41666667  0.83333333  5.787037e-04
  0.00000000  0.41666667  0.91666667  5.787037e-04
  0.00000000  0.50000000  0.00000000  5.787037e-04
  0.00000000  0.50000000  0.08333333  5.787037e-04
  0.00000000  0.50000000  0.16666667  5.787037e-04
  0.00000000  0.50000000  0.25000000  5.787037e-04
  0.00000000  0.50000000  0.33333333  5.787037e-04
  0.00000000  0.50000000  0.41666667  5.787037e-04
  0.00000000  0.50000000  0.50000000  5.787037e-04
  0.00000000  0.50000000  0.58333333  5.787037e-04
  0.00000000  0.50000000  0.66666667  5.787037e-04
  0.00000000  0.50000000  0.75000000  5.787037e-04
  0.00000000  0.50000000  0.83333333  5.787037e-04
  0.00000000  0.50000000  0.91666667  5.787037e-04
  0.00000000  0.58333333  0.00000000  5.787037e-04
  0.00000000  0.58333333  0.08333333  5.787037e-04
  0.00000000  0.58333333  0.16666667  5.787037e-04
  0.00000000  0.58333333  0.25000000  5.787037e-04
  0.00000000  0.58333333  0.33333333  5.787037e-04
  0.00000000  0.58333333  0.41666667  5.787037e-04
  0.00000000  0.58333333  0.50000000  5.787037e-04
  0.00000000  0.58333333  0.58333333  5.787037e-04
  0.00000000  0.58333333  0.66666667  5.787037e-04
  0.00000000  0.58333333  0.75000000  5.787037e-04
  0.00000000  0.58333333  0.83333333  5.787037e-04
  0.00000000  0.58333333  0.91666667  5.787037e-04
  0.00000000  0.66666667  0.00000000  5.787037e-04
  0.00000000  0.66666667  0.08333333  5.787037e-04
  0.00000000  0.66666667  0.16666667  5.787037e-04
  0.00000000  0.66666667  0.25000000  5.787037e-04
  0.00000000  0.66666667  0.33333333  5.787037e-04
  0.00000000  0.66666667  0.41666667  5.787037e-04
  0.00000000  0.66666667  0.50000000  5.787037e-04
  0.00000000  0.66666667  0.58333333  5.787037e-04
  0.00000000  0.66666667  0.66666667  5.787037e-04
  0.00000000  0.66666667  0.75000000  5.787037e-04
  0.00000000  0.66666667  0.83333333  5.787037e-04
  0.00000000  0.66666667  0.91666667  5.787037e-04
  0.00000000  0.75000000  0.00000000  5.787037e-04
  0.00000000  0.75000000  0.08333333  5.787037e-04
  0.00000000  0.75000000  0.16666667  5.787037e-04
  0.00000000  0.75000000  0.25000000  5.787037e-04
  0.00000000  0.75000000  0.33333333  5.787037e-04
  0.00000000  0.75000000  0.41666667  5.787037e-04
  0.00000000  0.75000000  0.50000000  5.787037e-04
  0.00000000  0.75000000  0.58333333  5.787037e-04
  0.00000000  0.75000000  0.66666667  5.787037e-04
  0.00000000  0.75000000  0.75000000  5.787037e-04
  0.00000000  0.75000000  0.83333333  5.787037e-04
  0.00000000  0.75000000  0.91666667  5.787037e-04
  0.00000000  0.83333333  0.00000000  5.787037e-04
  0.00000000  0.83333333  0.08333333  5.787037e-04
  0.00000000  0.83333333  0.16666667  5.787037e-04
  0.00000000  0.83333333  0.25000000  5.787037e-04
  0.00000000  0.83333333  0.33333333  5.787037e-04
  0.00000000  0.83333333  0.41666667  5.787037e-04
  0.00000000  0.83333333  0.50000000  5.787037e-04
  0.00000000  0.83333333  0.58333333  5.787037e-04
  0.00000000  0.83333333  0.66666667  5.787037e-04
  0.00000000  0.83333333  0.75000000  5.787037e-04
  0.00000000  0.83333333  0.83333333  5.787037e-04
  0.00000000  0.83333333  0.91666667  5.787037e-04
  0.00000000  0.91666667  0.00000000  5.787037e-04
  0.00000000  0.91666667  0.08333333  5.787037e-04
  0.00000000  0.91666667  0.16666667  5.787037e-04
  0.00000000  0.91666667  0.25000000  5.787037e-04
  0.00000000  0.91666667  0.33333333  5.787037e-04
  0.00000000  0.91666667  0.41666667  5.787037e-04
  0.00000000  0.91666667  0.50000000  5.787037e-04
  0.00000000  0.91666667  0.58333333  5.787037e-04
  0.00000000  0.91666667  0.66666667  5.787037e-04
  0.00000000  0.91666667  0.75000000  5.787037e-04
  0.00000000  0.91666667  0.83333333  5.787037e-04
  0.00000000  0.91666667  0.91666667  5.787037e-04
  0.08333333  0.00000000  0.00000000  5.787037e-04
  0.08333333  0.00000000  0.08333333  5.787037e-04
  0.08333333  0.00000000  0.16666667  5.787037e-04
  0.08333333  0.00000000  0.25000000  5.787037e-04
  0.08333333  0.00000000  0.33333333  5.787037e-04
  0.08333333  0.00000000  0.41666667  5.787037e-04
  0.08333333  0.00000000  0.50000000  5.787037e-04
  0.08333333  0.00000000  0.58333333  5.787037e-04
  0.08333333  0.00000000  0.66666667  5.787037e-04
  0.08333333  0.00000000  0.75000000  5.787037e-04
  0.08333333  0.00000000  0.83333333  5.787037e-04
  0.08333333  0.00000000  0.91666667  5.787037e-04
  0.08333333  0.08333333  0.00000000  5.787037e-04
  0.08333333  0.08333333  0.08333333  5.787037e-04
  0.08333333  0.08333333  0.16666667  5.787037e-04
  0.08333333  0.08333333  0.25000000  5.787037e-04
  0.08333333  0.08333333  0.33333333  5.787037e-04
  0.08333333  0.08333333  0.41666667  5.787037e-04
  0.08333333  0.08333333  0.50000000  5.787037e-04
  0.08333333  0.08333333  0.58333333  5.787037e-04
  0.08333333  0.08333333  0.66666667  5.787037e-04
  0.08333333  0.08333333  0.75000000  5.787037e-04
  0.08333333  0.08333333  0.83333333  5.787037e-04
  0.08333333  0.08333333  0.91666667  5.787037e-04
  0.08333333  0.16666667  0.00000000  5.787037e-04
  0.08333333  0.16666667  0.08333333  5.787037e-04
  0.08333333  0.16666667  0.16666667  5.787037e-04
  0.08333333  0.16666667  0.25000000  5.787037e-04
  0.08333333  0.16666667  0.33333333  5.787037e-04
  0.08333333  0.16666667  0.41666667  5.787037e-04
  0.08333333  0.16666667  0.50000000  5.787037e-04
  0.08333333  0.16666667  0.58333333  5.787037e-04
  0.08333333  0.16666667  0.66666667  5.787037e-04
  0.08333333  0.16666667  0.75000000  5.787037e-04
  0.08333333  0.16666667  0.83333333  5.787037e-04
  0.08333333  0.16666667  0.91666667  5.787037e-04
  0.08333333  0.25000000  0.00000000  5.787037e-04
  0.08333333  0.25000000  0.08333333  5.787037e-04
  0.08333333  0.25000000  0.16666667  5.787037e-04
  0.08333333  0.25000000  0.25000000  5.787037e-04
  0.08333333  0.25000000  0.33333333  5.787037e-04
  0.08333333  0.25000000  0.41666667  5.787037e-04
  0.08333333  0.25000000  0.50000000  5.787037e-04
  0.08333333  0.25000000  0.58333333  5.787037e-04
  0.08333333  0.25000000  0.66666667  5.787037e-04
  0.08333333  0.25000000  0.75000000  5.787037e-04
  0.08333333  0.25000000  0.83333333  5.787037e-04
  0.08333333  0.25000000  0.91666667  5.787037e-04
  0.08333333  0.33333333  0.00000000  5.787037e-04
  0.08333333  0.33333333  0.08333333  5.787037e-04
  0.08333333  0.33333333  0.16666667  5.787037e-04
  0.08333333  0.33333333  0.25000000  5.787037e-04
  0.08333333  0.33333333  0.33333333  5.787037e-04
  0.08333333  0.33333333  0.41666667  5.787037e-04
  0.08333333  0.33333333  0.50000000  5.787037e-04
  0.08333333  0.33333333  0.58333333  5.787037e-04
  0.08333333  0.33333333  0.66666667  5.787037e-04
  0.08333333  0.33333333  0.75000000  5.787037e-04
  0.08333333  0.33333333  0.83333333  5.787037e-04
  0.08333333  0.33333333  0.91666667  5.787037e-04
  0.08333333  0.41666667  0.00000000  5.787037e-04
  0.08333333  0.41666667  0.08333333  5.787037e-04
  0.08333333  0.41666667  0.16666667  5.787037e-04
  0.08333333  0.41666667  0.25000000  5.787037e-04
  0.08333333  0.41666667  0.33333333  5.787037e-04
  0.08333333  0.41666667  0.41666667  5.787037e-04
  0.08333333  0.41666667  0.50000000  5.787037e-04
  0.08333333  0.41666667  0.58333333  5.787037e-04
  0.08333333  0.41666667  0.66666667  5.787037e-04
  0.08333333  0.41666667  0.75000000  5.787037e-04
  0.08333333  0.41666667  0.83333333  5.787037e-04
  0.08333333  0.41666667  0.91666667  5.787037e-04
  0.08333333  0.50000000  0.00000000  5.787037e-04
  0.08333333  0.50000000  0.08333333  5.787037e-04
  0.08333333  0.50000000  0.16666667  5.787037e-04
  0.08333333  0.50000000  0.25000000  5.787037e-04
  0.08333333  0.50000000  0.33333333  5.787037e-04
  0.08333333  0.50000000  0.41666667  5.787037e-04
  0.08333333  0.50000000  0.50000000  5.787037e-04
  0.08333333  0.50000000  0.58333333  5.787037e-04
  0.08333333  0.50000000  0.66666667  5.787037e-04
  0.08333333  0.50000000  0.75000000  5.787037e-04
  0.08333333  0.50000000  0.83333333  5.787037e-04
  0.08333333  0.50000000  0.91666667  5.787037e-04
  0.08333333  0.58333333  0.00000000  5.787037e-04
  0.08333333  0.58333333  0.08333333  5.787037e-04
  0.08333333  0.58333333  0.16666667  5.787037e-04
  0.08333333  0.58333333  0.25000000  5.787037e-04
  0.08333333  0.58333333  0.33333333  5.787037e-04
  0.08333333  0.58333333  0.41666667  5.787037e-04
  0.08333333  0.58333333  0.50000000  5.787037e-04
  0.08333333  0.58333333  0.58333333  5.787037e-04
  0.08333333  0.58333333  0.66666667  5.787037e-04
  0.08333333  0.58333333  0.75000000  5.787037e-04
  0.08333333  0.58333333  0.83333333  5.787037e-04
  0.08333333  0.58333333  0.91666667  5.787037e-04
  0.08333333  0.66666667  0.00000000  5.787037e-04
  0.08333333  0.66666667  0.08333333  5.787037e-04
  0.08333333  0.66666667  0.16666667  5.787037e-04
  0.08333333  0.66666667  0.25000000  5.787037e-04
  0.08333333  0.66666667  0.33333333  5.787037e-04
  0.08333333  0.66666667  0.41666667  5.787037e-04
  0.08333333  0.66666667  0.50000000  5.787037e-04
  0.08333333  0.66666667  0.58333333  5.787037e-04
  0.08333333  0.66666667  0.66666667  5.787037e-04
  0.08333333  0.66666667  0.75000000  5.787037e-04
  0.08333333  0.66666667  0.83333333  5.787037e-04
  0.08333333  0.66666667  0.91666667  5.787037e-04
  0.08333333  0.75000000  0.00000000  5.787037e-04
  0.08333333  0.75000000  0.08333333  5.787037e-04
  0.08333333  0.75000000  0.16666667  5.787037e-04
  0.08333333  0.75000000  0.25000000  5.787037e-04
  0.08333333  0.75000000  0.33333333  5.787037e-04
  0.08333333  0.75000000  0.41666667  5.787037e-04
  0.08333333  0.75000000  0.50000000  5.787037e-04
  0.08333333  0.75000000  0.58333333  5.787037e-04
  0.08333333  0.75000000  0.66666667  5.787037e-04
  0.08333333  0.75000000  0.75000000  5.787037e-04
  0.08333333  0.75000000  0.83333333  5.787037e-04
  0.08333333  0.75000000  0.91666667  5.787037e-04
  0.08333333  0.83333333  0.00000000  5.787037e-04
  0.08333333  0.83333333  0.08333333  5.787037e-04
  0.08333333  0.83333333  0.16666667  5.787037e-04
  0.08333333  0.83333333  0.25000000  5.787037e-04
  0.08333333  0.83333333  0.33333333  5.787037e-04
  0.08333333  0.83333333  0.41666667  5.787037e-04
  0.08333333  0.83333333  0.50000000  5.787037e-04
  0.08333333  0.83333333  0.58333333  5.787037e-04
  0.08333333  0.83333333  0.66666667  5.787037e-04
  0.08333333  0.83333333  0.75000000  5.787037e-04
  0.08333333  0.83333333  0.83333333  5.787037e-04
  0.08333333  0.83333333  0.91666667  5.787037e-04
  0.08333333  0.91666667  0.00000000  5.787037e-04
  0.08333333  0.91666667  0.08333333  5.787037e-04
  0.08333333  0.91666667  0.16666667  5.787037e-04
  0.08333333  0.91666667  0.25000000  5.787037e-04
  0.08333333  0.91666667  0.33333333  5.787037e-04
  0.08333333  0.91666667  0.41666667  5.787037e-04
  0.08333333  0.91666667  0.50000000  5.787037e-04
  0.08333333  0.91666667  0.58333333  5.787037e-04
  0.08333333  0.91666667  0.66666667  5.787037e-04
  0.08333333  0.91666667  0.75000000  5.787037e-04
  0.08333333  0.91666667  0.83333333  5.787037e-04
  0.08333333  0.91666667  0.91666667  5.787037e-04
  0.16666667  0.00000000  0.00000000  5.787037e-04
  0.16666667  0.00000000  0.08333333  5.787037e-04
  0.16666667  0.00000000  0.16666667  5.787037e-04
  0.16666667  0.00000000  0.25000000  5.787037e-04
  0.16666667  0.00000000  0.33333333  5.787037e-04
  0.16666667  0.00000000  0.41666667  5.787037e-04
  0.16666667  0.00000000  0.50000000  5.787037e-04
  0.16666667  0.00000000  0.58333333  5.787037e-04
  0.16666667  0.00000000  0.66666667  5.787037e-04
  0.16666667  0.00000000  0.75000000  5.787037e-04
  0.16666667  0.00000000  0.83333333  5.787037e-04
  0.16666667  0.00000000  0.91666667  5.787037e-04
  0.16666667  0.08333333  0.00000000  5.787037e-04
  0.16666667  0.08333333  0.08333333  5.787037e-04
  0.16666667  0.08333333  0.16666667  5.787037e-04
  0.16666667  0.08333333  0.25000000  5.787037e-04
  0.16666667  0.08333333  0.33333333  5.787037e-04
  0.16666667  0.08333333  0.41666667  5.787037e-04
  0.16666667  0.08333333  0.50000000  5.787037e-04
  0.16666667  0.08333333  0.58333333  5.787037e-04
  0.16666667  0.08333333  0.66666667  5.787037e-04
  0.16666667  0.08333333  0.75000000  5.787037e-04
  0.16666667  0.08333333  0.83333333  5.787037e-04
  0.16666667  0.08333333  0.91666667  5.787037e-04
  0.16666667  0.16666667  0.00000000  5.787037e-04
  0.16666667  0.16666667  0.08333333  5.787037e-04
  0.16666667  0.16666667  0.16666667  5.787037e-04
  0.16666667  0.16666667  0.25000000  5.787037e-04
  0.16666667  0.16666667  0.33333333  5.787037e-04
  0.16666667  0.16666667  0.41666667  5.787037e-04
  0.16666667  0.16666667  0.50000000  5.787037e-04
  0.16666667  0.16666667  0.58333333  5.787037e-04
  0.16666667  0.16666667  0.66666667  5.787037e-04
  0.16666667  0.16666667  0.75000000  5.787037e-04
  0.16666667  0.16666667  0.83333333  5.787037e-04
  0.16666667  0.16666667  0.91666667  5.787037e-04
  0.16666667  0.25000000  0.00000000  5.787037e-04
  0.16666667  0.25000000  0.08333333  5.787037e-04
  0.16666667  0.25000000  0.16666667  5.787037e-04
  0.16666667  0.25000000  0.25000000  5.787037e-04
  0.16666667  0.25000000  0.33333333  5.787037e-04
  0.16666667  0.25000000  0.41666667  5.787037e-04
  0.16666667  0.25000000  0.50000000  5.787037e-04
  0.16666667  0.25000000  0.58333333  5.787037e-04
  0.16666667  0.25000000  0.66666667  5.787037e-04
  0.16666667  0.25000000  0.75000000  5.787037e-04
  0.16666667  0.25000000  0.83333333  5.787037e-04
  0.16666667  0.25000000  0.91666667  5.787037e-04
  0.16666667  0.33333333  0.00000000  5.787037e-04
  0.16666667  0.33333333  0.08333333  5.787037e-04
  0.16666667  0.33333333  0.16666667  5.787037e-04
  0.16666667  0.33333333  0.25000000  5.787037e-04
  0.16666667  0.33333333  0.33333333  5.787037e-04
  0.16666667  0.33333333  0.41666667  5.787037e-04
  0.16666667  0.33333333  0.50000000  5.787037e-04
  0.16666667  0.33333333  0.58333333  5.787037e-04
  0.16666667  0.33333333  0.66666667  5.787037e-04
  0.16666667  0.33333333  0.75000000  5.787037e-04
  0.16666667  0.33333333  0.83333333  5.787037e-04
  0.16666667  0.33333333  0.91666667  5.787037e-04
  0.16666667  0.41666667  0.00000000  5.787037e-04
  0.16666667  0.41666667  0.08333333  5.787037e-04
  0.16666667  0.41666667  0.16666667  5.787037e-04
  0.16666667  0.41666667  0.25000000  5.787037e-04
  0.16666667  0.41666667  0.33333333  5.787037e-04
  0.16666667  0.41666667  0.41666667  5.787037e-04
  0.16666667  0.41666667  0.50000000  5.787037e-04
  0.16666667  0.41666667  0.58333333  5.787037e-04
  0.16666667  0.41666667  0.66666667  5.787037e-04
  0.16666667  0.41666667  0.75000000  5.787037e-04
  0.16666667  0.41666667  0.83333333  5.787037e-04
  0.16666667  0.41666667  0.91666667  5.787037e-04
  0.16666667  0.50000000  0.00000000  5.787037e-04
  0.16666667  0.50000000  0.08333333  5.787037e-04
  0.16666667  0.50000000  0.16666667  5.787037e-04
  0.16666667  0.50000000  0.25000000  5.787037e-04
  0.16666667  0.50000000  0.33333333  5.787037e-04
  0.16666667  0.50000000  0.41666667  5.787037e-04
  0.16666667  0.50000000  0.50000000  5.787037e-04
  0.16666667  0.50000000  0.58333333  5.787037e-04
  0.16666667  0.50000000  0.66666667  5.787037e-04
  0.16666667  0.50000000  0.75000000  5.787037e-04
  0.16666667  0.50000000  0.83333333  5.787037e-04
  0.16666667  0.50000000  0.91666667  5.787037e-04
  0.16666667  0.58333333  0.00000000  5.787037e-04
  0.16666667  0.58333333  0.08333333  5.787037e-04
  0.16666667  0.58333333  0.16666667  5.787037e-04
  0.16666667  0.58333333  0.25000000  5.787037e-04
  0.16666667  0.58333333  0.33333333  5.787037e-04
  0.16666667  0.58333333  0.41666667  5.787037e-04
  0.16666667  0.58333333  0.50000000  5.787037e-04
  0.16666667  0.58333333  0.58333333  5.787037e-04
  0.16666667  0.58333333  0.66666667  5.787037e-04
  0.16666667  0.58333333  0.75000000  5.787037e-04
  0.16666667  0.58333333  0.83333333  5.787037e-04
  0.16666667  0.58333333  0.91666667  5.787037e-04
  0.16666667  0.66666667  0.00000000  5.787037e-04
  0.16666667  0.66666667  0.08333333  5.787037e-04
  0.16666667  0.66666667  0.16666667  5.787037e-04
  0.16666667  0.66666667  0.25000000  5.787037e-04
  0.16666667  0.66666667  0.33333333  5.787037e-04
  0.16666667  0.66666667  0.41666667  5.787037e-04
  0.16666667  0.66666667  0.50000000  5.787037e-04
  0.16666667  0.66666667  0.58333333  5.787037e-04
  0.16666667  0.66666667  0.66666667  5.787037e-04
  0.16666667  0.66666667  0.75000000  5.787037e-04
  0.16666667  0.66666667  0.83333333  5.787037e-04
  0.16666667  0.66666667  0.91666667  5.787037e-04
  0.16666667  0.75000000  0.00000000  5.787037e-04
  0.16666667  0.75000000  0.08333333  5.787037e-04
  0.16666667  0.75000000  0.16666667  5.787037e-04
  0.16666667  0.75000000  0.25000000  5.787037e-04
  0.16666667  0.75000000  0.33333333  5.787037e-04
  0.16666667  0.75000000  0.41666667  5.787037e-04
  0.16666667  0.75000000  0.50000000  5.787037e-04
  0.16666667  0.75000000  0.58333333  5.787037e-04
  0.16666667  0.75000000  0.66666667  5.787037e-04
  0.16666667  0.75000000  0.75000000  5.787037e-04
  0.16666667  0.75000000  0.83333333  5.787037e-04
  0.16666667  0.75000000  0.91666667  5.787037e-04
  0.16666667  0.83333333  0.00000000  5.787037e-04
  0.16666667  0.83333333  0.08333333  5.787037e-04
  0.16666667  0.83333333  0.16666667  5.787037e-04
  0.16666667  0.83333333  0.25000000  5.787037e-04
  0.16666667  0.83333333  0.33333333  5.787037e-04
  0.16666667  0.83333333  0.41666667  5.787037e-04
  0.16666667  0.83333333  0.50000000  5.787037e-04
  0.16666667  0.83333333  0.58333333  5.787037e-04
  0.16666667  0.83333333  0.66666667  5.787037e-04
  0.16666667  0.83333333  0.75000000  5.787037e-04
  0.16666667  0.83333333  0.83333333  5.787037e-04
  0.16666667  0.83333333  0.91666667  5.787037e-04
  0.16666667  0.91666667  0.00000000  5.787037e-04
  0.16666667  0.91666667  0.08333333  5.787037e-04
  0.16666667  0.91666667  0.16666667  5.787037e-04
  0.16666667  0.91666667  0.25000000  5.787037e-04
  0.16666667  0.91666667  0.33333333  5.787037e-04
  0.16666667  0.91666667  0.41666667  5.787037e-04
  0.16666667  0.91666667  0.50000000  5.787037e-04
  0.16666667  0.91666667  0.58333333  5.787037e-04
  0.16666667  0.91666667  0.66666667  5.787037e-04
  0.16666667  0.91666667  0.75000000  5.787037e-04
  0.16666667  0.91666667  0.83333333  5.787037e-04
  0.16666667  0.91666667  0.91666667  5.787037e-04
  0.25000000  0.00000000  0.00000000  5.787037e-04
  0.25000000  0.00000000  0.08333333  5.787037e-04
  0.25000000  0.00000000  0.16666667  5.787037e-04
  0.25000000  0.00000000  0.25000000  5.787037e-04
  0.25000000  0.00000000  0.33333333  5.787037e-04
  0.25000000  0.00000000  0.41666667  5.787037e-04
  0.25000000  0.00000000  0.50000000  5.787037e-04
  0.25000000  0.00000000  0.58333333  5.787037e-04
  0.25000000  0.00000000  0.66666667  5.787037e-04
  0.25000000  0.00000000  0.75000000  5.787037e-04
  0.25000000  0.00000000  0.83333333  5.787037e-04
  0.25000000  0.00000000  0.91666667  5.787037e-04
  0.25000000  0.08333333  0.00000000  5.787037e-04
  0.25000000  0.08333333  0.08333333  5.787037e-04
  0.25000000  0.08333333  0.16666667  5.787037e-04
  0.25000000  0.08333333  0.25000000  5.787037e-04
  0.25000000  0.08333333  0.33333333  5.787037e-04
  0.25000000  0.08333333  0.41666667  5.787037e-04
  0.25000000  0.08333333  0.50000000  5.787037e-04
  0.25000000  0.08333333  0.58333333  5.787037e-04
  0.25000000  0.08333333  0.66666667  5.787037e-04
  0.25000000  0.08333333  0.75000000  5.787037e-04
  0.25000000  0.08333333  0.83333333  5.787037e-04
  0.25000000  0.08333333  0.91666667  5.787037e-04
  0.25000000  0.16666667  0.00000000  5.787037e-04
  0.25000000  0.16666667  0.08333333  5.787037e-04
  0.25000000  0.16666667  0.16666667  5.787037e-04
  0.25000000  0.16666667  0.25000000  5.787037e-04
  0.25000000  0.16666667  0.33333333  5.787037e-04
  0.25000000  0.16666667  0.41666667  5.787037e-04
  0.25000000  0.16666667  0.50000000  5.787037e-04
  0.25000000  0.16666667  0.58333333  5.787037e-04
  0.25000000  0.16666667  0.66666667  5.787037e-04
  0.25000000  0.16666667  0.75000000  5.787037e-04
  0.25000000  0.16666667  0.83333333  5.787037e-04
  0.25000000  0.16666667  0.91666667  5.787037e-04
  0.25000000  0.25000000  0.00000000  5.787037e-04
  0.25000000  0.25000000  0.08333333  5.787037e-04
  0.25000000  0.25000000  0.16666667  5.787037e-04
  0.25000000  0.25000000  0.25000000  5.787037e-04
  0.25000000  0.25000000  0.33333333  5.787037e-04
  0.25000000  0.25000000  0.41666667  5.787037e-04
  0.25000000  0.25000000  0.50000000  5.787037e-04
  0.25000000  0.25000000  0.58333333  5.787037e-04
  0.25000000  0.25000000  0.66666667  5.787037e-04
  0.25000000  0.25000000  0.75000000  5.787037e-04
  0.25000000  0.25000000  0.83333333  5.787037e-04
  0.25000000  0.25000000  0.91666667  5.787037e-04
  0.25000000  0.33333333  0.00000000  5.787037e-04
  0.25000000  0.33333333  0.08333333  5.787037e-04
  0.25000000  0.33333333  0.16666667  5.787037e-04
  0.25000000  0.33333333  0.25000000  5.787037e-04
  0.25000000  0.33333333  0.33333333  5.787037e-04
  0.25000000  0.33333333  0.41666667  5.787037e-04
  0.25000000  0.33333333  0.50000000  5.787037e-04
  0.25000000  0.33333333  0.58333333  5.787037e-04
  0.25000000  0.33333333  0.66666667  5.787037e-04
  0.25000000  0.33333333  0.75000000  5.787037e-04
  0.25000000  0.33333333  0.83333333  5.787037e-04
  0.25000000  0.33333333  0.91666667  5.787037e-04
  0.25000000  0.41666667  0.00000000  5.787037e-04
  0.25000000  0.41666667  0.08333333  5.787037e-04
  0.25000000  0.41666667  0.16666667  5.787037e-04
  0.25000000  0.41666667  0.25000000  5.787037e-04
  0.25000000  0.41666667  0.33333333  5.787037e-04
  0.25000000  0.41666667  0.41666667  5.787037e-04
  0.25000000  0.41666667  0.50000000  5.787037e-04
  0.25000000  0.41666667  0.58333333  5.787037e-04
  0.25000000  0.41666667  0.66666667  5.787037e-04
  0.25000000  0.41666667  0.75000000  5.787037e-04
  0.25000000  0.41666667  0.83333333  5.787037e-04
  0.25000000  0.41666667  0.91666667  5.787037e-04
  0.25000000  0.50000000  0.00000000  5.787037e-04
  0.25000000  0.50000000  0.08333333  5.787037e-04
  0.25000000  0.50000000  0.16666667  5.787037e-04
  0.25000000  0.50000000  0.25000000  5.787037e-04
  0.25000000  0.50000000  0.33333333  5.787037e-04
  0.25000000  0.50000000  0.41666667  5.787037e-04
  0.25000000  0.50000000  0.50000000  5.787037e-04
  0.25000000  0.50000000  0.58333333  5.787037e-04
  0.25000000  0.50000000  0.66666667  5.787037e-04
  0.25000000  0.50000000  0.75000000  5.787037e-04
  0.25000000  0.50000000  0.83333333  5.787037e-04
  0.25000000  0.50000000  0.91666667  5.787037e-04
  0.25000000  0.58333333  0.00000000  5.787037e-04
  0.25000000  0.58333333  0.08333333  5.787037e-04
  0.25000000  0.58333333  0.16666667  5.787037e-04
  0.25000000  0.58333333  0.25000000  5.787037e-04
  0.25000000  0.58333333  0.33333333  5.787037e-04
  0.25000000  0.58333333  0.41666667  5.787037e-04
  0.25000000  0.58333333  0.50000000  5.787037e-04
  0.25000000  0.58333333  0.58333333  5.787037e-04
  0.25000000  0.58333333  0.66666667  5.787037e-04
  0.25000000  0.58333333  0.75000000  5.787037e-04
  0.25000000  0.58333333  0.83333333  5.787037e-04
  0.25000000  0.58333333  0.91666667  5.787037e-04
  0.25000000  0.66666667  0.00000000  5.787037e-04
  0.25000000  0.66666667  0.08333333  5.787037e-04
  0.25000000  0.66666667  0.16666667  5.787037e-04
  0.25000000  0.66666667  0.25000000  5.787037e-04
  0.25000000  0.66666667  0.33333333  5.787037e-04
  0.25000000  0.66666667  0.41666667  5.787037e-04
  0.25000000  0.66666667  0.50000000  5.787037e-04
  0.25000000  0.66666667  0.58333333  5.787037e-04
  0.25000000  0.66666667  0.66666667  5.787037e-04
  0.25000000  0.66666667  0.75000000  5.787037e-04
  0.25000000  0.66666667  0.83333333  5.787037e-04
  0.25000000  0.66666667  0.91666667  5.787037e-04
  0.25000000  0.75000000  0.00000000  5.787037e-04
  0.25000000  0.75000000  0.08333333  5.787037e-04
  0.25000000  0.75000000  0.16666667  5.787037e-04
  0.25000000  0.75000000  0.25000000  5.787037e-04
  0.25000000  0.75000000  0.33333333  5.787037e-04
  0.25000000  0.75000000  0.41666667  5.787037e-04
  0.25000000  0.75000000  0.50000000  5.787037e-04
  0.25000000  0.75000000  0.58333333  5.787037e-04
  0.25000000  0.75000000  0.66666667  5.787037e-04
  0.25000000  0.75000000  0.75000000  5.787037e-04
  0.25000000  0.75000000  0.83333333  5.787037e-04
  0.25000000  0.75000000  0.91666667  5.787037e-04
  0.25000000  0.83333333  0.00000000  5.787037e-04
  0.25000000  0.83333333  0.08333333  5.787037e-04
  0.25000000  0.83333333  0.16666667  5.787037e-04
  0.25000000  0.83333333  0.25000000  5.787037e-04
  0.25000000  0.83333333  0.33333333  5.787037e-04
  0.25000000  0.83333333  0.41666667  5.787037e-04
  0.25000000  0.83333333  0.50000000  5.787037e-04
  0.25000000  0.83333333  0.58333333  5.787037e-04
  0.25000000  0.83333333  0.66666667  5.787037e-04
  0.25000000  0.83333333  0.75000000  5.787037e-04
  0.25000000  0.83333333  0.83333333  5.787037e-04
  0.25000000  0.83333333  0.91666667  5.787037e-04
  0.25000000  0.91666667  0.00000000  5.787037e-04
  0.25000000  0.91666667  0.08333333  5.787037e-04
  0.25000000  0.91666667  0.16666667  5.787037e-04
  0.25000000  0.91666667  0.25000000  5.787037e-04
  0.25000000  0.91666667  0.33333333  5.787037e-04
  0.25000000  0.91666667  0.41666667  5.787037e-04
  0.25000000  0.91666667  0.50000000  5.787037e-04
  0.25000000  0.91666667  0.58333333  5.787037e-04
  0.25000000  0.91666667  0.66666667  5.787037e-04
  0.25000000  0.91666667  0.75000000  5.787037e-04