&inputpp
    prefix = 'mp-1672'
    outdir='out/',
    plot_num=10,
    emin = 8.356431547907647,
    emax = 9.356431547907647,
    delta_e = 0.1,
/
&plot
    iflag=3,
    output_format=6,
    fileout='ldos.cube',
/
