&inputpp
    prefix = 'mp-1228891'
    outdir='out/',
    plot_num=10,
    emin = 7.3776366155783615,
    emax = 8.37763661557836,
    delta_e = 0.1,
/
&plot
    iflag=3,
    output_format=6,
    fileout='ldos.cube',
/
