&inputpp
    prefix = 'mp-2472'
    outdir='out/',
    plot_num=10,
    emin = 11.053948332586103,
    emax = 12.053948332586103,
    delta_e = 0.1,
/
&plot
    iflag=3,
    output_format=6,
    fileout='ldos.cube',
/
