H24 Pb4 C4 I12 N4
1.0
   8.5567253427521468    0.0000000000000000    0.0000000000000000
   0.0000000000000000    9.2504592894659776    0.0000000000000000
   0.0000000000000000    0.0000000000000000   12.9636490042533659
H Pb C I N
24 4 4 12 4
direct
   0.4942640379647513    0.1429740109819296    0.6853760526441934 H
   0.5057360388459240    0.8570260658287455    0.3146240241664817 H
   0.0057360004405863    0.6429740493872671    0.3146240241664817 H
   0.9942640763700890    0.3570260274234079    0.6853760526441934 H
   0.5057360388459240    0.8570260658287455    0.1853760142388560 H
   0.4942640379647513    0.1429740109819296    0.8146240625718191 H
   0.9942640763700890    0.3570260274234079    0.8146240625718191 H
   0.0057360004405863    0.6429740493872671    0.1853760142388559 H
   0.3380590259665398    0.0786320060397773    0.7500000576080063 H
   0.6619410508441356    0.9213680707708979    0.2500000192026688 H
   0.1619410124387979    0.5786320444451147    0.2500000192026688 H
   0.8380590643718776    0.4213680323655603    0.7500000576080063 H
   0.4947750380040017    0.8798890675848681    0.6807610522897121 H
   0.5052250388066736    0.1201110092258070    0.3192390245209629 H
   0.0052250004013361    0.3798890291795305    0.3192390245209629 H
   0.9947750764093394    0.6201110476311446    0.6807610522897121 H
   0.5052250388066736    0.1201110092258070    0.1807610138843747 H
   0.4947750380040017    0.8798890675848681    0.8192390629263006 H
   0.9947750764093394    0.6201110476311446    0.8192390629263006 H
   0.0052250004013361    0.3798890291795305    0.1807610138843746 H
   0.6598480506833707    0.9496630729442561    0.7500000576080063 H
   0.3401520261273048    0.0503370038664189    0.2500000192026688 H
   0.8401520645326425    0.4496630345389188    0.2500000192026688 H
   0.1598480122780329    0.5503370422717564    0.7500000576080063 H
   0.5000000384053377    0.5000000384053376    0.0000000000000000 Pb
   0.0000000000000000    0.0000000000000000    0.0000000000000000 Pb
   0.5000000384053377    0.5000000384053376    0.5000000384053376 Pb
   0.0000000000000000    0.0000000000000000    0.5000000384053376 Pb
   0.5323550408905473    0.9378380720359698    0.7500000576080063 C
   0.4676450359201281    0.0621620047747052    0.2500000192026688 C
   0.9676450743254656    0.4378380336306323    0.2500000192026688 C
   0.0323550024852096    0.5621620431800427    0.7500000576080063 C
   0.5377330413036349    0.5125960393728450    0.7500000576080063 I
   0.4622670355070405    0.4874040374378301    0.2500000192026688 I
   0.9622670739123781    0.0125960009675075    0.2500000192026688 I
   0.0377330028982974    0.9874040758431677    0.7500000576080063 I
   0.8160660626825804    0.6928390532174312    0.0221470017011262 I
   0.1839340141280950    0.3071610235932438    0.9778530751095489 I
   0.6839340525334325    0.1928390148120938    0.9778530751095489 I
   0.3160660242772428    0.8071610619985814    0.0221470017011262 I
   0.1839340141280950    0.3071610235932438    0.5221470401064636 I
   0.8160660626825804    0.6928390532174312    0.4778530367042115 I
   0.3160660242772428    0.8071610619985814    0.4778530367042115 I
   0.6839340525334325    0.1928390148120938    0.5221470401064637 I
   0.4596090353028773    0.0848630065183846    0.7500000576080063 N
   0.5403910415077982    0.9151370702922906    0.2500000192026688 N
   0.0403910031024604    0.5848630449237221    0.2500000192026688 N
   0.9596090737082149    0.4151370318869529    0.7500000576080063 N
