&inputpp
    prefix = 'mp-111'
    outdir='out/',
    plot_num=10,
    emin = 4.261460807920959,
    emax = 5.261460807920959,
    delta_e = 0.1,
/
&plot
    iflag=3,
    output_format=6,
    fileout='ldos.cube',
/
