num_wann = 6
exclude_bands = 1-11 18-34
num_iter = 500

auto_projections =.true.

begin atoms_frac
Al 0.00024112001852068455 0.00024112001852068455 0.00024112001852068455
Ga 0.4998710883954331 0.499871088395433 0.499871011584758
As 0.8751558272213047 0.8751557504106298 0.8751557504106298
As 0.37473109878334665 0.37473109878334654 0.3747310219726716
end atoms_frac

geninterp = true
geninterp_alsofirstder = true

begin unit_cell_cart
2.005661 -1.157969 6.545878
0.000000 2.315938 6.545878
-2.005661 -1.157969 6.545878
end unit_cell_cart

mp_grid : 10 10 10

begin kpoints
  0.00000000  0.00000000  0.00000000
  0.00000000  0.00000000  0.10000000
  0.00000000  0.00000000  0.20000000
  0.00000000  0.00000000  0.30000000
  0.00000000  0.00000000  0.40000000
  0.00000000  0.00000000  0.50000000
  0.00000000  0.00000000  0.60000000
  0.00000000  0.00000000  0.70000000
  0.00000000  0.00000000  0.80000000
  0.00000000  0.00000000  0.90000000
  0.00000000  0.10000000  0.00000000
  0.00000000  0.10000000  0.10000000
  0.00000000  0.10000000  0.20000000
  0.00000000  0.10000000  0.30000000
  0.00000000  0.10000000  0.40000000
  0.00000000  0.10000000  0.50000000
  0.00000000  0.10000000  0.60000000
  0.00000000  0.10000000  0.70000000
  0.00000000  0.10000000  0.80000000
  0.00000000  0.10000000  0.90000000
  0.00000000  0.20000000  0.00000000
  0.00000000  0.20000000  0.10000000
  0.00000000  0.20000000  0.20000000
  0.00000000  0.20000000  0.30000000
  0.00000000  0.20000000  0.40000000
  0.00000000  0.20000000  0.50000000
  0.00000000  0.20000000  0.60000000
  0.00000000  0.20000000  0.70000000
  0.00000000  0.20000000  0.80000000
  0.00000000  0.20000000  0.90000000
  0.00000000  0.30000000  0.00000000
  0.00000000  0.30000000  0.10000000
  0.00000000  0.30000000  0.20000000
  0.00000000  0.30000000  0.30000000
  0.00000000  0.30000000  0.40000000
  0.00000000  0.30000000  0.50000000
  0.00000000  0.30000000  0.60000000
  0.00000000  0.30000000  0.70000000
  0.00000000  0.30000000  0.80000000
  0.00000000  0.30000000  0.90000000
  0.00000000  0.40000000  0.00000000
  0.00000000  0.40000000  0.10000000
  0.00000000  0.40000000  0.20000000
  0.00000000  0.40000000  0.30000000
  0.00000000  0.40000000  0.40000000
  0.00000000  0.40000000  0.50000000
  0.00000000  0.40000000  0.60000000
  0.00000000  0.40000000  0.70000000
  0.00000000  0.40000000  0.80000000
  0.00000000  0.40000000  0.90000000
  0.00000000  0.50000000  0.00000000
  0.00000000  0.50000000  0.10000000
  0.00000000  0.50000000  0.20000000
  0.00000000  0.50000000  0.30000000
  0.00000000  0.50000000  0.40000000
  0.00000000  0.50000000  0.50000000
  0.00000000  0.50000000  0.60000000
  0.00000000  0.50000000  0.70000000
  0.00000000  0.50000000  0.80000000
  0.00000000  0.50000000  0.90000000
  0.00000000  0.60000000  0.00000000
  0.00000000  0.60000000  0.10000000
  0.00000000  0.60000000  0.20000000
  0.00000000  0.60000000  0.30000000
  0.00000000  0.60000000  0.40000000
  0.00000000  0.60000000  0.50000000
  0.00000000  0.60000000  0.60000000
  0.00000000  0.60000000  0.70000000
  0.00000000  0.60000000  0.80000000
  0.00000000  0.60000000  0.90000000
  0.00000000  0.70000000  0.00000000
  0.00000000  0.70000000  0.10000000
  0.00000000  0.70000000  0.20000000
  0.00000000  0.70000000  0.30000000
  0.00000000  0.70000000  0.40000000
  0.00000000  0.70000000  0.50000000
  0.00000000  0.70000000  0.60000000
  0.00000000  0.70000000  0.70000000
  0.00000000  0.70000000  0.80000000
  0.00000000  0.70000000  0.90000000
  0.00000000  0.80000000  0.00000000
  0.00000000  0.80000000  0.10000000
  0.00000000  0.80000000  0.20000000
  0.00000000  0.80000000  0.30000000
  0.00000000  0.80000000  0.40000000
  0.00000000  0.80000000  0.50000000
  0.00000000  0.80000000  0.60000000
  0.00000000  0.80000000  0.70000000
  0.00000000  0.80000000  0.80000000
  0.00000000  0.80000000  0.90000000
  0.00000000  0.90000000  0.00000000
  0.00000000  0.90000000  0.10000000
  0.00000000  0.90000000  0.20000000
  0.00000000  0.90000000  0.30000000
  0.00000000  0.90000000  0.40000000
  0.00000000  0.90000000  0.50000000
  0.00000000  0.90000000  0.60000000
  0.00000000  0.90000000  0.70000000
  0.00000000  0.90000000  0.80000000
  0.00000000  0.90000000  0.90000000
  0.10000000  0.00000000  0.00000000
  0.10000000  0.00000000  0.10000000
  0.10000000  0.00000000  0.20000000
  0.10000000  0.00000000  0.30000000
  0.10000000  0.00000000  0.40000000
  0.10000000  0.00000000  0.50000000
  0.10000000  0.00000000  0.60000000
  0.10000000  0.00000000  0.70000000
  0.10000000  0.00000000  0.80000000
  0.10000000  0.00000000  0.90000000
  0.10000000  0.10000000  0.00000000
  0.10000000  0.10000000  0.10000000
  0.10000000  0.10000000  0.20000000
  0.10000000  0.10000000  0.30000000
  0.10000000  0.10000000  0.40000000
  0.10000000  0.10000000  0.50000000
  0.10000000  0.10000000  0.60000000
  0.10000000  0.10000000  0.70000000
  0.10000000  0.10000000  0.80000000
  0.10000000  0.10000000  0.90000000
  0.10000000  0.20000000  0.00000000
  0.10000000  0.20000000  0.10000000
  0.10000000  0.20000000  0.20000000
  0.10000000  0.20000000  0.30000000
  0.10000000  0.20000000  0.40000000
  0.10000000  0.20000000  0.50000000
  0.10000000  0.20000000  0.60000000
  0.10000000  0.20000000  0.70000000
  0.10000000  0.20000000  0.80000000
  0.10000000  0.20000000  0.90000000
  0.10000000  0.30000000  0.00000000
  0.10000000  0.30000000  0.10000000
  0.10000000  0.30000000  0.20000000
  0.10000000  0.30000000  0.30000000
  0.10000000  0.30000000  0.40000000
  0.10000000  0.30000000  0.50000000
  0.10000000  0.30000000  0.60000000
  0.10000000  0.30000000  0.70000000
  0.10000000  0.30000000  0.80000000
  0.10000000  0.30000000  0.90000000
  0.10000000  0.40000000  0.00000000
  0.10000000  0.40000000  0.10000000
  0.10000000  0.40000000  0.20000000
  0.10000000  0.40000000  0.30000000
  0.10000000  0.40000000  0.40000000
  0.10000000  0.40000000  0.50000000
  0.10000000  0.40000000  0.60000000
  0.10000000  0.40000000  0.70000000
  0.10000000  0.40000000  0.80000000
  0.10000000  0.40000000  0.90000000
  0.10000000  0.50000000  0.00000000
  0.10000000  0.50000000  0.10000000
  0.10000000  0.50000000  0.20000000
  0.10000000  0.50000000  0.30000000
  0.10000000  0.50000000  0.40000000
  0.10000000  0.50000000  0.50000000
  0.10000000  0.50000000  0.60000000
  0.10000000  0.50000000  0.70000000
  0.10000000  0.50000000  0.80000000
  0.10000000  0.50000000  0.90000000
  0.10000000  0.60000000  0.00000000
  0.10000000  0.60000000  0.10000000
  0.10000000  0.60000000  0.20000000
  0.10000000  0.60000000  0.30000000
  0.10000000  0.60000000  0.40000000
  0.10000000  0.60000000  0.50000000
  0.10000000  0.60000000  0.60000000
  0.10000000  0.60000000  0.70000000
  0.10000000  0.60000000  0.80000000
  0.10000000  0.60000000  0.90000000
  0.10000000  0.70000000  0.00000000
  0.10000000  0.70000000  0.10000000
  0.10000000  0.70000000  0.20000000
  0.10000000  0.70000000  0.30000000
  0.10000000  0.70000000  0.40000000
  0.10000000  0.70000000  0.50000000
  0.10000000  0.70000000  0.60000000
  0.10000000  0.70000000  0.70000000
  0.10000000  0.70000000  0.80000000
  0.10000000  0.70000000  0.90000000
  0.10000000  0.80000000  0.00000000
  0.10000000  0.80000000  0.10000000
  0.10000000  0.80000000  0.20000000
  0.10000000  0.80000000  0.30000000
  0.10000000  0.80000000  0.40000000
  0.10000000  0.80000000  0.50000000
  0.10000000  0.80000000  0.60000000
  0.10000000  0.80000000  0.70000000
  0.10000000  0.80000000  0.80000000
  0.10000000  0.80000000  0.90000000
  0.10000000  0.90000000  0.00000000
  0.10000000  0.90000000  0.10000000
  0.10000000  0.90000000  0.20000000
  0.10000000  0.90000000  0.30000000
  0.10000000  0.90000000  0.40000000
  0.10000000  0.90000000  0.50000000
  0.10000000  0.90000000  0.60000000
  0.10000000  0.90000000  0.70000000
  0.10000000  0.90000000  0.80000000
  0.10000000  0.90000000  0.90000000
  0.20000000  0.00000000  0.00000000
  0.20000000  0.00000000  0.10000000
  0.20000000  0.00000000  0.20000000
  0.20000000  0.00000000  0.30000000
  0.20000000  0.00000000  0.40000000
  0.20000000  0.00000000  0.50000000
  0.20000000  0.00000000  0.60000000
  0.20000000  0.00000000  0.70000000
  0.20000000  0.00000000  0.80000000
  0.20000000  0.00000000  0.90000000
  0.20000000  0.10000000  0.00000000
  0.20000000  0.10000000  0.10000000
  0.20000000  0.10000000  0.20000000
  0.20000000  0.10000000  0.30000000
  0.20000000  0.10000000  0.40000000
  0.20000000  0.10000000  0.50000000
  0.20000000  0.10000000  0.60000000
  0.20000000  0.10000000  0.70000000
  0.20000000  0.10000000  0.80000000
  0.20000000  0.10000000  0.90000000
  0.20000000  0.20000000  0.00000000
  0.20000000  0.20000000  0.10000000
  0.20000000  0.20000000  0.20000000
  0.20000000  0.20000000  0.30000000
  0.20000000  0.20000000  0.40000000
  0.20000000  0.20000000  0.50000000
  0.20000000  0.20000000  0.60000000
  0.20000000  0.20000000  0.70000000
  0.20000000  0.20000000  0.80000000
  0.20000000  0.20000000  0.90000000
  0.20000000  0.30000000  0.00000000
  0.20000000  0.30000000  0.10000000
  0.20000000  0.30000000  0.20000000
  0.20000000  0.30000000  0.30000000
  0.20000000  0.30000000  0.40000000
  0.20000000  0.30000000  0.50000000
  0.20000000  0.30000000  0.60000000
  0.20000000  0.30000000  0.70000000
  0.20000000  0.30000000  0.80000000
  0.20000000  0.30000000  0.90000000
  0.20000000  0.40000000  0.00000000
  0.20000000  0.40000000  0.10000000
  0.20000000  0.40000000  0.20000000
  0.20000000  0.40000000  0.30000000
  0.20000000  0.40000000  0.40000000
  0.20000000  0.40000000  0.50000000
  0.20000000  0.40000000  0.60000000
  0.20000000  0.40000000  0.70000000
  0.20000000  0.40000000  0.80000000
  0.20000000  0.40000000  0.90000000
  0.20000000  0.50000000  0.00000000
  0.20000000  0.50000000  0.10000000
  0.20000000  0.50000000  0.20000000
  0.20000000  0.50000000  0.30000000
  0.20000000  0.50000000  0.40000000
  0.20000000  0.50000000  0.50000000
  0.20000000  0.50000000  0.60000000
  0.20000000  0.50000000  0.70000000
  0.20000000  0.50000000  0.80000000
  0.20000000  0.50000000  0.90000000
  0.20000000  0.60000000  0.00000000
  0.20000000  0.60000000  0.10000000
  0.20000000  0.60000000  0.20000000
  0.20000000  0.60000000  0.30000000
  0.20000000  0.60000000  0.40000000
  0.20000000  0.60000000  0.50000000
  0.20000000  0.60000000  0.60000000
  0.20000000  0.60000000  0.70000000
  0.20000000  0.60000000  0.80000000
  0.20000000  0.60000000  0.90000000
  0.20000000  0.70000000  0.00000000
  0.20000000  0.70000000  0.10000000
  0.20000000  0.70000000  0.20000000
  0.20000000  0.70000000  0.30000000
  0.20000000  0.70000000  0.40000000
  0.20000000  0.70000000  0.50000000
  0.20000000  0.70000000  0.60000000
  0.20000000  0.70000000  0.70000000
  0.20000000  0.70000000  0.80000000
  0.20000000  0.70000000  0.90000000
  0.20000000  0.80000000  0.00000000
  0.20000000  0.80000000  0.10000000
  0.20000000  0.80000000  0.20000000
  0.20000000  0.80000000  0.30000000
  0.20000000  0.80000000  0.40000000
  0.20000000  0.80000000  0.50000000
  0.20000000  0.80000000  0.60000000
  0.20000000  0.80000000  0.70000000
  0.20000000  0.80000000  0.80000000
  0.20000000  0.80000000  0.90000000
  0.20000000  0.90000000  0.00000000
  0.20000000  0.90000000  0.10000000
  0.20000000  0.90000000  0.20000000
  0.20000000  0.90000000  0.30000000
  0.20000000  0.90000000  0.40000000
  0.20000000  0.90000000  0.50000000
  0.20000000  0.90000000  0.60000000
  0.20000000  0.90000000  0.70000000
  0.20000000  0.90000000  0.80000000
  0.20000000  0.90000000  0.90000000
  0.30000000  0.00000000  0.00000000
  0.30000000  0.00000000  0.10000000
  0.30000000  0.00000000  0.20000000
  0.30000000  0.00000000  0.30000000
  0.30000000  0.00000000  0.40000000
  0.30000000  0.00000000  0.50000000
  0.30000000  0.00000000  0.60000000
  0.30000000  0.00000000  0.70000000
  0.30000000  0.00000000  0.80000000
  0.30000000  0.00000000  0.90000000
  0.30000000  0.10000000  0.00000000
  0.30000000  0.10000000  0.10000000
  0.30000000  0.10000000  0.20000000
  0.30000000  0.10000000  0.30000000
  0.30000000  0.10000000  0.40000000
  0.30000000  0.10000000  0.50000000
  0.30000000  0.10000000  0.60000000
  0.30000000  0.10000000  0.70000000
  0.30000000  0.10000000  0.80000000
  0.30000000  0.10000000  0.90000000
  0.30000000  0.20000000  0.00000000
  0.30000000  0.20000000  0.10000000
  0.30000000  0.20000000  0.20000000
  0.30000000  0.20000000  0.30000000
  0.30000000  0.20000000  0.40000000
  0.30000000  0.20000000  0.50000000
  0.30000000  0.20000000  0.60000000
  0.30000000  0.20000000  0.70000000
  0.30000000  0.20000000  0.80000000
  0.30000000  0.20000000  0.90000000
  0.30000000  0.30000000  0.00000000
  0.30000000  0.30000000  0.10000000
  0.30000000  0.30000000  0.20000000
  0.30000000  0.30000000  0.30000000
  0.30000000  0.30000000  0.40000000
  0.30000000  0.30000000  0.50000000
  0.30000000  0.30000000  0.60000000
  0.30000000  0.30000000  0.70000000
  0.30000000  0.30000000  0.80000000
  0.30000000  0.30000000  0.90000000
  0.30000000  0.40000000  0.00000000
  0.30000000  0.40000000  0.10000000
  0.30000000  0.40000000  0.20000000
  0.30000000  0.40000000  0.30000000
  0.30000000  0.40000000  0.40000000
  0.30000000  0.40000000  0.50000000
  0.30000000  0.40000000  0.60000000
  0.30000000  0.40000000  0.70000000
  0.30000000  0.40000000  0.80000000
  0.30000000  0.40000000  0.90000000
  0.30000000  0.50000000  0.00000000
  0.30000000  0.50000000  0.10000000
  0.30000000  0.50000000  0.20000000
  0.30000000  0.50000000  0.30000000
  0.30000000  0.50000000  0.40000000
  0.30000000  0.50000000  0.50000000
  0.30000000  0.50000000  0.60000000
  0.30000000  0.50000000  0.70000000
  0.30000000  0.50000000  0.80000000
  0.30000000  0.50000000  0.90000000
  0.30000000  0.60000000  0.00000000
  0.30000000  0.60000000  0.10000000
  0.30000000  0.60000000  0.20000000
  0.30000000  0.60000000  0.30000000
  0.30000000  0.60000000  0.40000000
  0.30000000  0.60000000  0.50000000
  0.30000000  0.60000000  0.60000000
  0.30000000  0.60000000  0.70000000
  0.30000000  0.60000000  0.80000000
  0.30000000  0.60000000  0.90000000
  0.30000000  0.70000000  0.00000000
  0.30000000  0.70000000  0.10000000
  0.30000000  0.70000000  0.20000000
  0.30000000  0.70000000  0.30000000
  0.30000000  0.70000000  0.40000000
  0.30000000  0.70000000  0.50000000
  0.30000000  0.70000000  0.60000000
  0.30000000  0.70000000  0.70000000
  0.30000000  0.70000000  0.80000000
  0.30000000  0.70000000  0.90000000
  0.30000000  0.80000000  0.00000000
  0.30000000  0.80000000  0.10000000
  0.30000000  0.80000000  0.20000000
  0.30000000  0.80000000  0.30000000
  0.30000000  0.80000000  0.40000000
  0.30000000  0.80000000  0.50000000
  0.30000000  0.80000000  0.60000000
  0.30000000  0.80000000  0.70000000
  0.30000000  0.80000000  0.80000000
  0.30000000  0.80000000  0.90000000
  0.30000000  0.90000000  0.00000000
  0.30000000  0.90000000  0.10000000
  0.30000000  0.90000000  0.20000000
  0.30000000  0.90000000  0.30000000
  0.30000000  0.90000000  0.40000000
  0.30000000  0.90000000  0.50000000
  0.30000000  0.90000000  0.60000000
  0.30000000  0.90000000  0.70000000
  0.30000000  0.90000000  0.80000000
  0.30000000  0.90000000  0.90000000
  0.40000000  0.00000000  0.00000000
  0.40000000  0.00000000  0.10000000
  0.40000000  0.00000000  0.20000000
  0.40000000  0.00000000  0.30000000
  0.40000000  0.00000000  0.40000000
  0.40000000  0.00000000  0.50000000
  0.40000000  0.00000000  0.60000000
  0.40000000  0.00000000  0.70000000
  0.40000000  0.00000000  0.80000000
  0.40000000  0.00000000  0.90000000
  0.40000000  0.10000000  0.00000000
  0.40000000  0.10000000  0.10000000
  0.40000000  0.10000000  0.20000000
  0.40000000  0.10000000  0.30000000
  0.40000000  0.10000000  0.40000000
  0.40000000  0.10000000  0.50000000
  0.40000000  0.10000000  0.60000000
  0.40000000  0.10000000  0.70000000
  0.40000000  0.10000000  0.80000000
  0.40000000  0.10000000  0.90000000
  0.40000000  0.20000000  0.00000000
  0.40000000  0.20000000  0.10000000
  0.40000000  0.20000000  0.20000000
  0.40000000  0.20000000  0.30000000
  0.40000000  0.20000000  0.40000000
  0.40000000  0.20000000  0.50000000
  0.40000000  0.20000000  0.60000000
  0.40000000  0.20000000  0.70000000
  0.40000000  0.20000000  0.80000000
  0.40000000  0.20000000  0.90000000
  0.40000000  0.30000000  0.00000000
  0.40000000  0.30000000  0.10000000
  0.40000000  0.30000000  0.20000000
  0.40000000  0.30000000  0.30000000
  0.40000000  0.30000000  0.40000000
  0.40000000  0.30000000  0.50000000
  0.40000000  0.30000000  0.60000000
  0.40000000  0.30000000  0.70000000
  0.40000000  0.30000000  0.80000000
  0.40000000  0.30000000  0.90000000
  0.40000000  0.40000000  0.00000000
  0.40000000  0.40000000  0.10000000
  0.40000000  0.40000000  0.20000000
  0.40000000  0.40000000  0.30000000
  0.40000000  0.40000000  0.40000000
  0.40000000  0.40000000  0.50000000
  0.40000000  0.40000000  0.60000000
  0.40000000  0.40000000  0.70000000
  0.40000000  0.40000000  0.80000000
  0.40000000  0.40000000  0.90000000
  0.40000000  0.50000000  0.00000000
  0.40000000  0.50000000  0.10000000
  0.40000000  0.50000000  0.20000000
  0.40000000  0.50000000  0.30000000
  0.40000000  0.50000000  0.40000000
  0.40000000  0.50000000  0.50000000
  0.40000000  0.50000000  0.60000000
  0.40000000  0.50000000  0.70000000
  0.40000000  0.50000000  0.80000000
  0.40000000  0.50000000  0.90000000
  0.40000000  0.60000000  0.00000000
  0.40000000  0.60000000  0.10000000
  0.40000000  0.60000000  0.20000000
  0.40000000  0.60000000  0.30000000
  0.40000000  0.60000000  0.40000000
  0.40000000  0.60000000  0.50000000
  0.40000000  0.60000000  0.60000000
  0.40000000  0.60000000  0.70000000
  0.40000000  0.60000000  0.80000000
  0.40000000  0.60000000  0.90000000
  0.40000000  0.70000000  0.00000000
  0.40000000  0.70000000  0.10000000
  0.40000000  0.70000000  0.20000000
  0.40000000  0.70000000  0.30000000
  0.40000000  0.70000000  0.40000000
  0.40000000  0.70000000  0.50000000
  0.40000000  0.70000000  0.60000000
  0.40000000  0.70000000  0.70000000
  0.40000000  0.70000000  0.80000000
  0.40000000  0.70000000  0.90000000
  0.40000000  0.80000000  0.00000000
  0.40000000  0.80000000  0.10000000
  0.40000000  0.80000000  0.20000000
  0.40000000  0.80000000  0.30000000
  0.40000000  0.80000000  0.40000000
  0.40000000  0.80000000  0.50000000
  0.40000000  0.80000000  0.60000000
  0.40000000  0.80000000  0.70000000
  0.40000000  0.80000000  0.80000000
  0.40000000  0.80000000  0.90000000
  0.40000000  0.90000000  0.00000000
  0.40000000  0.90000000  0.10000000
  0.40000000  0.90000000  0.20000000
  0.40000000  0.90000000  0.30000000
  0.40000000  0.90000000  0.40000000
  0.40000000  0.90000000  0.50000000
  0.40000000  0.90000000  0.60000000
  0.40000000  0.90000000  0.70000000
  0.40000000  0.90000000  0.80000000
  0.40000000  0.90000000  0.90000000
  0.50000000  0.00000000  0.00000000
  0.50000000  0.00000000  0.10000000
  0.50000000  0.00000000  0.20000000
  0.50000000  0.00000000  0.30000000
  0.50000000  0.00000000  0.40000000
  0.50000000  0.00000000  0.50000000
  0.50000000  0.00000000  0.60000000
  0.50000000  0.00000000  0.70000000
  0.50000000  0.00000000  0.80000000
  0.50000000  0.00000000  0.90000000
  0.50000000  0.10000000  0.00000000
  0.50000000  0.10000000  0.10000000
  0.50000000  0.10000000  0.20000000
  0.50000000  0.10000000  0.30000000
  0.50000000  0.10000000  0.40000000
  0.50000000  0.10000000  0.50000000
  0.50000000  0.10000000  0.60000000
  0.50000000  0.10000000  0.70000000
  0.50000000  0.10000000  0.80000000
  0.50000000  0.10000000  0.90000000
  0.50000000  0.20000000  0.00000000
  0.50000000  0.20000000  0.10000000
  0.50000000  0.20000000  0.20000000
  0.50000000  0.20000000  0.30000000
  0.50000000  0.20000000  0.40000000
  0.50000000  0.20000000  0.50000000
  0.50000000  0.20000000  0.60000000
  0.50000000  0.20000000  0.70000000
  0.50000000  0.20000000  0.80000000
  0.50000000  0.20000000  0.90000000
  0.50000000  0.30000000  0.00000000
  0.50000000  0.30000000  0.10000000
  0.50000000  0.30000000  0.20000000
  0.50000000  0.30000000  0.30000000
  0.50000000  0.30000000  0.40000000
  0.50000000  0.30000000  0.50000000
  0.50000000  0.30000000  0.60000000
  0.50000000  0.30000000  0.70000000
  0.50000000  0.30000000  0.80000000
  0.50000000  0.30000000  0.90000000
  0.50000000  0.40000000  0.00000000
  0.50000000  0.40000000  0.10000000
  0.50000000  0.40000000  0.20000000
  0.50000000  0.40000000  0.30000000
  0.50000000  0.40000000  0.40000000
  0.50000000  0.40000000  0.50000000
  0.50000000  0.40000000  0.60000000
  0.50000000  0.40000000  0.70000000
  0.50000000  0.40000000  0.80000000
  0.50000000  0.40000000  0.90000000
  0.50000000  0.50000000  0.00000000
  0.50000000  0.50000000  0.10000000
  0.50000000  0.50000000  0.20000000
  0.50000000  0.50000000  0.30000000
  0.50000000  0.50000000  0.40000000
  0.50000000  0.50000000  0.50000000
  0.50000000  0.50000000  0.60000000
  0.50000000  0.50000000  0.70000000
  0.50000000  0.50000000  0.80000000
  0.50000000  0.50000000  0.90000000
  0.50000000  0.60000000  0.00000000
  0.50000000  0.60000000  0.10000000
  0.50000000  0.60000000  0.20000000
  0.50000000  0.60000000  0.30000000
  0.50000000  0.60000000  0.40000000
  0.50000000  0.60000000  0.50000000
  0.50000000  0.60000000  0.60000000
  0.50000000  0.60000000  0.70000000
  0.50000000  0.60000000  0.80000000
  0.50000000  0.60000000  0.90000000
  0.50000000  0.70000000  0.00000000
  0.50000000  0.70000000  0.10000000
  0.50000000  0.70000000  0.20000000
  0.50000000  0.70000000  0.30000000
  0.50000000  0.70000000  0.40000000
  0.50000000  0.70000000  0.50000000
  0.50000000  0.70000000  0.60000000
  0.50000000  0.70000000  0.70000000
  0.50000000  0.70000000  0.80000000
  0.50000000  0.70000000  0.90000000
  0.50000000  0.80000000  0.00000000
  0.50000000  0.80000000  0.10000000
  0.50000000  0.80000000  0.20000000
  0.50000000  0.80000000  0.30000000
  0.50000000  0.80000000  0.40000000
  0.50000000  0.80000000  0.50000000
  0.50000000  0.80000000  0.60000000
  0.50000000  0.80000000  0.70000000
  0.50000000  0.80000000  0.80000000
  0.50000000  0.80000000  0.90000000
  0.50000000  0.90000000  0.00000000
  0.50000000  0.90000000  0.10000000
  0.50000000  0.90000000  0.20000000
  0.50000000  0.90000000  0.30000000
  0.50000000  0.90000000  0.40000000
  0.50000000  0.90000000  0.50000000
  0.50000000  0.90000000  0.60000000
  0.50000000  0.90000000  0.70000000
  0.50000000  0.90000000  0.80000000
  0.50000000  0.90000000  0.90000000
  0.60000000  0.00000000  0.00000000
  0.60000000  0.00000000  0.10000000
  0.60000000  0.00000000  0.20000000
  0.60000000  0.00000000  0.30000000
  0.60000000  0.00000000  0.40000000
  0.60000000  0.00000000  0.50000000
  0.60000000  0.00000000  0.60000000
  0.60000000  0.00000000  0.70000000
  0.60000000  0.00000000  0.80000000
  0.60000000  0.00000000  0.90000000
  0.60000000  0.10000000  0.00000000
  0.60000000  0.10000000  0.10000000
  0.60000000  0.10000000  0.20000000
  0.60000000  0.10000000  0.30000000
  0.60000000  0.10000000  0.40000000
  0.60000000  0.10000000  0.50000000
  0.60000000  0.10000000  0.60000000
  0.60000000  0.10000000  0.70000000
  0.60000000  0.10000000  0.80000000
  0.60000000  0.10000000  0.90000000
  0.60000000  0.20000000  0.00000000
  0.60000000  0.20000000  0.10000000
  0.60000000  0.20000000  0.20000000
  0.60000000  0.20000000  0.30000000
  0.60000000  0.20000000  0.40000000
  0.60000000  0.20000000  0.50000000
  0.60000000  0.20000000  0.60000000
  0.60000000  0.20000000  0.70000000
  0.60000000  0.20000000  0.80000000
  0.60000000  0.20000000  0.90000000
  0.60000000  0.30000000  0.00000000
  0.60000000  0.30000000  0.10000000
  0.60000000  0.30000000  0.20000000
  0.60000000  0.30000000  0.30000000
  0.60000000  0.30000000  0.40000000
  0.60000000  0.30000000  0.50000000
  0.60000000  0.30000000  0.60000000
  0.60000000  0.30000000  0.70000000
  0.60000000  0.30000000  0.80000000
  0.60000000  0.30000000  0.90000000
  0.60000000  0.40000000  0.00000000
  0.60000000  0.40000000  0.10000000
  0.60000000  0.40000000  0.20000000
  0.60000000  0.40000000  0.30000000
  0.60000000  0.40000000  0.40000000
  0.60000000  0.40000000  0.50000000
  0.60000000  0.40000000  0.60000000
  0.60000000  0.40000000  0.70000000
  0.60000000  0.40000000  0.80000000
  0.60000000  0.40000000  0.90000000
  0.60000000  0.50000000  0.00000000
  0.60000000  0.50000000  0.10000000
  0.60000000  0.50000000  0.20000000
  0.60000000  0.50000000  0.30000000
  0.60000000  0.50000000  0.40000000
  0.60000000  0.50000000  0.50000000
  0.60000000  0.50000000  0.60000000
  0.60000000  0.50000000  0.70000000
  0.60000000  0.50000000  0.80000000
  0.60000000  0.50000000  0.90000000
  0.60000000  0.60000000  0.00000000
  0.60000000  0.60000000  0.10000000
  0.60000000  0.60000000  0.20000000
  0.60000000  0.60000000  0.30000000
  0.60000000  0.60000000  0.40000000
  0.60000000  0.60000000  0.50000000
  0.60000000  0.60000000  0.60000000
  0.60000000  0.60000000  0.70000000
  0.60000000  0.60000000  0.80000000
  0.60000000  0.60000000  0.90000000
  0.60000000  0.70000000  0.00000000
  0.60000000  0.70000000  0.10000000
  0.60000000  0.70000000  0.20000000
  0.60000000  0.70000000  0.30000000
  0.60000000  0.70000000  0.40000000
  0.60000000  0.70000000  0.50000000
  0.60000000  0.70000000  0.60000000
  0.60000000  0.70000000  0.70000000
  0.60000000  0.70000000  0.80000000
  0.60000000  0.70000000  0.90000000
  0.60000000  0.80000000  0.00000000
  0.60000000  0.80000000  0.10000000
  0.60000000  0.80000000  0.20000000
  0.60000000  0.80000000  0.30000000
  0.60000000  0.80000000  0.40000000
  0.60000000  0.80000000  0.50000000
  0.60000000  0.80000000  0.60000000
  0.60000000  0.80000000  0.70000000
  0.60000000  0.80000000  0.80000000
  0.60000000  0.80000000  0.90000000
  0.60000000  0.90000000  0.00000000
  0.60000000  0.90000000  0.10000000
  0.60000000  0.90000000  0.20000000
  0.60000000  0.90000000  0.30000000
  0.60000000  0.90000000  0.40000000
  0.60000000  0.90000000  0.50000000
  0.60000000  0.90000000  0.60000000
  0.60000000  0.90000000  0.70000000
  0.60000000  0.90000000  0.80000000
  0.60000000  0.90000000  0.90000000
  0.70000000  0.00000000  0.00000000
  0.70000000  0.00000000  0.10000000
  0.70000000  0.00000000  0.20000000
  0.70000000  0.00000000  0.30000000
  0.70000000  0.00000000  0.40000000
  0.70000000  0.00000000  0.50000000
  0.70000000  0.00000000  0.60000000
  0.70000000  0.00000000  0.70000000
  0.70000000  0.00000000  0.80000000
  0.70000000  0.00000000  0.90000000
  0.70000000  0.10000000  0.00000000
  0.70000000  0.10000000  0.10000000
  0.70000000  0.10000000  0.20000000
  0.70000000  0.10000000  0.30000000
  0.70000000  0.10000000  0.40000000
  0.70000000  0.10000000  0.50000000
  0.70000000  0.10000000  0.60000000
  0.70000000  0.10000000  0.70000000
  0.70000000  0.10000000  0.80000000
  0.70000000  0.10000000  0.90000000
  0.70000000  0.20000000  0.00000000
  0.70000000  0.20000000  0.10000000
  0.70000000  0.20000000  0.20000000
  0.70000000  0.20000000  0.30000000
  0.70000000  0.20000000  0.40000000
  0.70000000  0.20000000  0.50000000
  0.70000000  0.20000000  0.60000000
  0.70000000  0.20000000  0.70000000
  0.70000000  0.20000000  0.80000000
  0.70000000  0.20000000  0.90000000
  0.70000000  0.30000000  0.00000000
  0.70000000  0.30000000  0.10000000
  0.70000000  0.30000000  0.20000000
  0.70000000  0.30000000  0.30000000
  0.70000000  0.30000000  0.40000000
  0.70000000  0.30000000  0.50000000
  0.70000000  0.30000000  0.60000000
  0.70000000  0.30000000  0.70000000
  0.70000000  0.30000000  0.80000000
  0.70000000  0.30000000  0.90000000
  0.70000000  0.40000000  0.00000000
  0.70000000  0.40000000  0.10000000
  0.70000000  0.40000000  0.20000000
  0.70000000  0.40000000  0.30000000
  0.70000000  0.40000000  0.40000000
  0.70000000  0.40000000  0.50000000
  0.70000000  0.40000000  0.60000000
  0.70000000  0.40000000  0.70000000
  0.70000000  0.40000000  0.80000000
  0.70000000  0.40000000  0.90000000
  0.70000000  0.50000000  0.00000000
  0.70000000  0.50000000  0.10000000
  0.70000000  0.50000000  0.20000000
  0.70000000  0.50000000  0.30000000
  0.70000000  0.50000000  0.40000000
  0.70000000  0.50000000  0.50000000
  0.70000000  0.50000000  0.60000000
  0.70000000  0.50000000  0.70000000
  0.70000000  0.50000000  0.80000000
  0.70000000  0.50000000  0.90000000
  0.70000000  0.60000000  0.00000000
  0.70000000  0.60000000  0.10000000
  0.70000000  0.60000000  0.20000000
  0.70000000  0.60000000  0.30000000
  0.70000000  0.60000000  0.40000000
  0.70000000  0.60000000  0.50000000
  0.70000000  0.60000000  0.60000000
  0.70000000  0.60000000  0.70000000
  0.70000000  0.60000000  0.80000000
  0.70000000  0.60000000  0.90000000
  0.70000000  0.70000000  0.00000000
  0.70000000  0.70000000  0.10000000
  0.70000000  0.70000000  0.20000000
  0.70000000  0.70000000  0.30000000
  0.70000000  0.70000000  0.40000000
  0.70000000  0.70000000  0.50000000
  0.70000000  0.70000000  0.60000000
  0.70000000  0.70000000  0.70000000
  0.70000000  0.70000000  0.80000000
  0.70000000  0.70000000  0.90000000
  0.70000000  0.80000000  0.00000000
  0.70000000  0.80000000  0.10000000
  0.70000000  0.80000000  0.20000000
  0.70000000  0.80000000  0.30000000
  0.70000000  0.80000000  0.40000000
  0.70000000  0.80000000  0.50000000
  0.70000000  0.80000000  0.60000000
  0.70000000  0.80000000  0.70000000
  0.70000000  0.80000000  0.80000000
  0.70000000  0.80000000  0.90000000
  0.70000000  0.90000000  0.00000000
  0.70000000  0.90000000  0.10000000
  0.70000000  0.90000000  0.20000000
  0.70000000  0.90000000  0.30000000
  0.70000000  0.90000000  0.40000000