&inputpp
    prefix = 'mp-1784'
    outdir='out/',
    plot_num=10,
    emin = 8.50438247362719,
    emax = 9.50438247362719,
    delta_e = 0.1,
/
&plot
    iflag=3,
    output_format=6,
    fileout='ldos.cube',
/
