Al1 Ga1 As2
1.0
   2.0056612794551607   -1.1579690795966464    6.5458778028854647
   0.0000000000000000    2.3159381591932928    6.5458778028854647
  -2.0056612794551607   -1.1579690795966464    6.5458778028854647
Al Ga As
1 1 2
direct
   0.0002411200185207    0.0002411200185207    0.0002411200185207 Al
   0.4998710883954331    0.4998710883954330    0.4998710115847580 Ga
   0.8751558272213047    0.8751557504106298    0.8751557504106298 As
   0.3747310987833467    0.3747310987833465    0.3747310219726716 As
